Ba10 Sr10 Co24 H4 O72                   
    1.000000000000000     
    11.1057150000000000    0.0000000000000000    0.0000000000000000
    -0.0047930000000000    5.5528550000000001    0.0000000000000000
     0.0000000000000000    0.0000000000000000   87.2902260000000041
   Ba   Sr   Co   H    O 
    10    10    24     4    72
Direct
  0.9988049597535023  0.0001526649974990  0.5550449224366423
  0.4995657401504312  0.9999752796705778  0.5550450076927831
  0.2496374803424594  0.5015394450030004  0.6010552907806249
  0.7528900067344614  0.5007389516208783  0.6008436526294254
 -0.0006446252251933  0.9996780632201405  0.4636917009910593
  0.4996720415888351  0.9996799023265289  0.4637155849143403
  0.2492314817824431  0.4957360752499491  0.5094681539870730
  0.7489153838479446  0.4969616760285776  0.5094684898478054
  0.2492120002705737  0.5016127217833944  0.4168347346409731
  0.7492653531359912  0.5013627858128251  0.4168307706789631
  0.2496776509644651  0.4920015658373729  0.5552722363974829
  0.7496291963916576  0.4930447159112250  0.5552626822404820
  0.4997779037104044  0.0061650453088862  0.6009538239536978
 -0.0001170564798931  0.0058955775465192  0.6009283086616451
  0.2525272046625558  0.4996816741626202  0.4633178145245974
  0.7499620977712111  0.4949314591962669  0.4634182734187700
  0.4990989409266121  0.9936452746122860  0.5088280751295092
  0.9991491450013645  0.9937591430110440  0.5088147493197659
  0.4997025090192160  0.0008409747410467  0.4175487519938152
 -0.0001961043637702  0.0008831656998087  0.4175612673857989
  0.2487139135847599  0.0095798682806471  0.6227348873894936
  0.7486960467949886  0.0091682533298345  0.6226928599226063
  0.0010332781233012  0.5089149797422062  0.6227829104937741
  0.5011983402317890  0.5092522163745472  0.6227988999498533
  0.9994709313002020  0.5087470355140118  0.5780500067721034
  0.4995165405811216  0.5087031750517250  0.5782359127945527
  0.2498609680467919  0.0008857676759850  0.5773775417717623
  0.7493936945803302  0.0019865658547939  0.5773858026373790
  0.2504391426754379  0.9932984964581254  0.5321296481616664
  0.7499654870312227  0.9990371415734602  0.5320529379362661
  0.9996373795828617  0.4992082125428108  0.5320224628586460
  0.4997489126601274  0.4992252139554521  0.5320272136650500
  0.9991267176674692  0.5064469897409714  0.4863686359363174
  0.4990898207091620  0.5063769149058371  0.4863851180084593
  0.2498685052152862  0.0001540180878699  0.4866928155754127
  0.7499043479483605 -0.0000272717912611  0.4866879587303684
  0.2495643906579554  0.0000046689711224  0.4413246006938520
  0.7481752544477941  0.0004091817526183  0.4411027323950489
 -0.0003807150035613  0.4999049040189245  0.4413303540454827
  0.4996930541849200  0.4998992927888149  0.4413250705463431
  0.9980142567637642  0.5108308774149753  0.3953518583950397
  0.4980145660149889  0.5108160167500350  0.3953523589191867
  0.2517253867218973  0.0109653710560149  0.3953123322608829
  0.7517125957376510  0.0109428408798704  0.3953012447402410
  0.1652698300996331 -0.0001793732727424  0.6466207815192482
  0.6652757542605666 -0.0002300596653487  0.6466239454370255
  0.9152726157850511  0.4999943700929416  0.6466229769306434
  0.4152728415368142  0.4999128241543825  0.6466224767997056
  0.0000099990781006  0.5000574987068730  0.6004707615356446
  0.5000062195972877  0.5000352441727042  0.6004738834089850
  0.9953002748467213  0.4999124871129919  0.5531781382285449
  0.5046921384818444  0.5000304889320709  0.5531774776288280
  0.1308906764826940  0.7920938146998019  0.6225594278847352
  0.6310194018481049  0.7877085652269932  0.6228839408751407
  0.3810036213298122  0.7125804767325586  0.6228889530669485
  0.8810062963988459  0.7125837327457597  0.6228894605261883
  0.3690406173546564  0.2124368154363683  0.6228843554577135
  0.8690411862401043  0.2124174244330206  0.6224097933841461
  0.1189276909060701  0.2874977146952060  0.6228884178508725
  0.6189285150107355  0.2874882281875645  0.6228871713707842
  0.2499846423050993  0.9999505911305565  0.5542759927420460
  0.7499842803555052  0.9999591241634899  0.5542748371603086
  0.2500060318535386  0.0000179835914058  0.5995889599071083
  0.7499850452148132 -0.0000410731196480  0.5995886700965212
  0.3771836457946938  0.2802709478830608  0.5779922019915297
  0.8771909391572409  0.2802243027796042  0.5779927854132849
  0.1262640359248716  0.2247850784092251  0.5781136131077936
  0.6262617029862730  0.2247827915010029  0.5781153529271695
  0.1228348837987701  0.7198943291811611  0.5779786944769267
  0.6228390677492049  0.7199135838818082  0.5779902449818690
  0.3737433543860091  0.7751446121370823  0.5781148722522801
  0.8737404293519451  0.7751692681095473  0.5781153805343612
  0.9953036414099244  0.4999692896563329  0.5078595977025077
  0.4953054511437304  0.4999698475181610  0.5078598729681614
 -0.0000073990871907  0.4999627866478440  0.4644878547205625
  0.4999939489096033  0.4999621868272445  0.4644873062095574
  0.1379948928453150  0.7747449381280685  0.5327968551342740
  0.6380426291401945  0.7748744424433979  0.5327937197137488
  0.3880106915065175  0.7249890148045876  0.5327918754970038
  0.8880278848821730  0.7250297196441924  0.5327868863047556
  0.3619039872782450  0.2249663657081710  0.5327927198718656
  0.8619223217936619  0.2250359171654946  0.5327905349396187
  0.1119437114104943  0.2749744766835044  0.5327888719469189
  0.6119568941884876  0.2749185871294387  0.5327849186094992
  0.2500000822203938  0.9875234153390722  0.4635261391612092
  0.7499926557271631  0.9875261378254828  0.4635251518703412
  0.2499884098386650  0.9875737012223339  0.5088442600170083
  0.7499897122108317  0.9875825971614296  0.5088443039428923
  0.3927953672711534  0.2624662079879994  0.4869546680613667
  0.8927949490719791  0.2624675390412503  0.4869547855971798
  0.1428566655675945  0.2373879638487979  0.4864746659006761
  0.6428549894701022  0.2373893994268097  0.4864746476786841
  0.1072123089454858  0.7375596445982286  0.4869567699345620
  0.6072123236314212  0.7375581950640846  0.4869567922290013
  0.3571784297861226  0.7625077649415807  0.4864741147116092
  0.8571759984951342  0.7625092829611331  0.4864742611115856
 -0.0000093121784371  0.4999565072810986  0.4191633556492729
  0.4999908188731206  0.4999602809099149  0.4191629343771168
  0.1380055389143620  0.7749440496815773  0.4406245502371879
  0.6379741601911630  0.7749081899950211  0.4406238931199526
  0.3857723302558584  0.7249785722663542  0.4406341589482574
  0.8857753678762297  0.7249616729237216  0.4406337019663667
  0.3619524285273175  0.2249870741558541  0.4406287505938973
  0.8619278967397975  0.2249557274009337  0.4406280540361608
  0.1142345998538141  0.2749531897371882  0.4406359719932237
  0.6142371235544980  0.2749387155688406  0.4406358537929480
  0.2499853310253484 -0.0000274000636940  0.4167647356261736
  0.7499829774646802 -0.0000312324422697  0.4167662525114063
  0.3881769838763000  0.2751297233864812  0.3937620388203470
  0.8881761819695750  0.2751277971440779  0.3937619821611698
  0.1380808639005098  0.2248210384465496  0.3937514613445623
  0.6380799738920263  0.2248220483254993  0.3937514188881843
  0.1118219020939764  0.7249385314276344  0.3937600067343358
  0.6118221241103061  0.7249397247552937  0.3937600005430918
  0.3619115482269287  0.7752345890065881  0.3937532384889210
  0.8619121942880290  0.7752313550579668  0.3937531823097444
  0.2500860218150451  0.0124434836135953  0.6432237853283810
  0.7500971091593880  0.0124517268382301  0.6432224303388324
  0.0001059129870617  0.5124372174415278  0.6432249526534930
  0.5001055105469991  0.5124493106580701  0.6432256919810007
 
  0.00000000E+00  0.00000000E+00  0.00000000E+00
  0.00000000E+00  0.00000000E+00  0.00000000E+00
  0.00000000E+00  0.00000000E+00  0.00000000E+00
  0.00000000E+00  0.00000000E+00  0.00000000E+00
  0.00000000E+00  0.00000000E+00  0.00000000E+00
  0.00000000E+00  0.00000000E+00  0.00000000E+00
  0.00000000E+00  0.00000000E+00  0.00000000E+00
  0.00000000E+00  0.00000000E+00  0.00000000E+00
  0.00000000E+00  0.00000000E+00  0.00000000E+00
  0.00000000E+00  0.00000000E+00  0.00000000E+00
  0.00000000E+00  0.00000000E+00  0.00000000E+00
  0.00000000E+00  0.00000000E+00  0.00000000E+00
  0.00000000E+00  0.00000000E+00  0.00000000E+00
  0.00000000E+00  0.00000000E+00  0.00000000E+00
  0.00000000E+00  0.00000000E+00  0.00000000E+00
  0.00000000E+00  0.00000000E+00  0.00000000E+00
  0.00000000E+00  0.00000000E+00  0.00000000E+00
  0.00000000E+00  0.00000000E+00  0.00000000E+00
  0.00000000E+00  0.00000000E+00  0.00000000E+00
  0.00000000E+00  0.00000000E+00  0.00000000E+00
  0.00000000E+00  0.00000000E+00  0.00000000E+00
  0.00000000E+00  0.00000000E+00  0.00000000E+00
  0.00000000E+00  0.00000000E+00  0.00000000E+00
  0.00000000E+00  0.00000000E+00  0.00000000E+00
  0.00000000E+00  0.00000000E+00  0.00000000E+00
  0.00000000E+00  0.00000000E+00  0.00000000E+00
  0.00000000E+00  0.00000000E+00  0.00000000E+00
  0.00000000E+00  0.00000000E+00  0.00000000E+00
  0.00000000E+00  0.00000000E+00  0.00000000E+00
  0.00000000E+00  0.00000000E+00  0.00000000E+00
  0.00000000E+00  0.00000000E+00  0.00000000E+00
  0.00000000E+00  0.00000000E+00  0.00000000E+00
  0.00000000E+00  0.00000000E+00  0.00000000E+00
  0.00000000E+00  0.00000000E+00  0.00000000E+00
  0.00000000E+00  0.00000000E+00  0.00000000E+00
  0.00000000E+00  0.00000000E+00  0.00000000E+00
  0.00000000E+00  0.00000000E+00  0.00000000E+00
  0.00000000E+00  0.00000000E+00  0.00000000E+00
  0.00000000E+00  0.00000000E+00  0.00000000E+00
  0.00000000E+00  0.00000000E+00  0.00000000E+00
  0.00000000E+00  0.00000000E+00  0.00000000E+00
  0.00000000E+00  0.00000000E+00  0.00000000E+00
  0.00000000E+00  0.00000000E+00  0.00000000E+00
  0.00000000E+00  0.00000000E+00  0.00000000E+00
  0.00000000E+00  0.00000000E+00  0.00000000E+00
  0.00000000E+00  0.00000000E+00  0.00000000E+00
  0.00000000E+00  0.00000000E+00  0.00000000E+00
  0.00000000E+00  0.00000000E+00  0.00000000E+00
  0.00000000E+00  0.00000000E+00  0.00000000E+00
  0.00000000E+00  0.00000000E+00  0.00000000E+00
  0.00000000E+00  0.00000000E+00  0.00000000E+00
  0.00000000E+00  0.00000000E+00  0.00000000E+00
  0.00000000E+00  0.00000000E+00  0.00000000E+00
  0.00000000E+00  0.00000000E+00  0.00000000E+00
  0.00000000E+00  0.00000000E+00  0.00000000E+00
  0.00000000E+00  0.00000000E+00  0.00000000E+00
  0.00000000E+00  0.00000000E+00  0.00000000E+00
  0.00000000E+00  0.00000000E+00  0.00000000E+00
  0.00000000E+00  0.00000000E+00  0.00000000E+00
  0.00000000E+00  0.00000000E+00  0.00000000E+00
  0.00000000E+00  0.00000000E+00  0.00000000E+00
  0.00000000E+00  0.00000000E+00  0.00000000E+00
  0.00000000E+00  0.00000000E+00  0.00000000E+00
  0.00000000E+00  0.00000000E+00  0.00000000E+00
  0.00000000E+00  0.00000000E+00  0.00000000E+00
  0.00000000E+00  0.00000000E+00  0.00000000E+00
  0.00000000E+00  0.00000000E+00  0.00000000E+00
  0.00000000E+00  0.00000000E+00  0.00000000E+00
  0.00000000E+00  0.00000000E+00  0.00000000E+00
  0.00000000E+00  0.00000000E+00  0.00000000E+00
  0.00000000E+00  0.00000000E+00  0.00000000E+00
  0.00000000E+00  0.00000000E+00  0.00000000E+00
  0.00000000E+00  0.00000000E+00  0.00000000E+00
  0.00000000E+00  0.00000000E+00  0.00000000E+00
  0.00000000E+00  0.00000000E+00  0.00000000E+00
  0.00000000E+00  0.00000000E+00  0.00000000E+00
  0.00000000E+00  0.00000000E+00  0.00000000E+00
  0.00000000E+00  0.00000000E+00  0.00000000E+00
  0.00000000E+00  0.00000000E+00  0.00000000E+00
  0.00000000E+00  0.00000000E+00  0.00000000E+00
  0.00000000E+00  0.00000000E+00  0.00000000E+00
  0.00000000E+00  0.00000000E+00  0.00000000E+00
  0.00000000E+00  0.00000000E+00  0.00000000E+00
  0.00000000E+00  0.00000000E+00  0.00000000E+00
  0.00000000E+00  0.00000000E+00  0.00000000E+00
  0.00000000E+00  0.00000000E+00  0.00000000E+00
  0.00000000E+00  0.00000000E+00  0.00000000E+00
  0.00000000E+00  0.00000000E+00  0.00000000E+00
  0.00000000E+00  0.00000000E+00  0.00000000E+00
  0.00000000E+00  0.00000000E+00  0.00000000E+00
  0.00000000E+00  0.00000000E+00  0.00000000E+00
  0.00000000E+00  0.00000000E+00  0.00000000E+00
  0.00000000E+00  0.00000000E+00  0.00000000E+00
  0.00000000E+00  0.00000000E+00  0.00000000E+00
  0.00000000E+00  0.00000000E+00  0.00000000E+00
  0.00000000E+00  0.00000000E+00  0.00000000E+00
  0.00000000E+00  0.00000000E+00  0.00000000E+00
  0.00000000E+00  0.00000000E+00  0.00000000E+00
  0.00000000E+00  0.00000000E+00  0.00000000E+00
  0.00000000E+00  0.00000000E+00  0.00000000E+00
  0.00000000E+00  0.00000000E+00  0.00000000E+00
  0.00000000E+00  0.00000000E+00  0.00000000E+00
  0.00000000E+00  0.00000000E+00  0.00000000E+00
  0.00000000E+00  0.00000000E+00  0.00000000E+00
  0.00000000E+00  0.00000000E+00  0.00000000E+00
  0.00000000E+00  0.00000000E+00  0.00000000E+00
  0.00000000E+00  0.00000000E+00  0.00000000E+00
  0.00000000E+00  0.00000000E+00  0.00000000E+00
  0.00000000E+00  0.00000000E+00  0.00000000E+00
  0.00000000E+00  0.00000000E+00  0.00000000E+00
  0.00000000E+00  0.00000000E+00  0.00000000E+00
  0.00000000E+00  0.00000000E+00  0.00000000E+00
  0.00000000E+00  0.00000000E+00  0.00000000E+00
  0.00000000E+00  0.00000000E+00  0.00000000E+00
  0.00000000E+00  0.00000000E+00  0.00000000E+00
  0.00000000E+00  0.00000000E+00  0.00000000E+00
  0.00000000E+00  0.00000000E+00  0.00000000E+00
  0.00000000E+00  0.00000000E+00  0.00000000E+00
  0.00000000E+00  0.00000000E+00  0.00000000E+00
  0.00000000E+00  0.00000000E+00  0.00000000E+00
