H1 Pd64 O2                              
    1.000000000000000     
    11.0798020200000007    0.0000000000000000    0.0000000000000007
    -0.0000000000000007   11.0798020200000007    0.0000000000000007
     0.0000000000000000    0.0000000000000000   39.1730157000000005
   H    Pd   O 
     1    64     2
Selective dynamics
Direct
  0.5222457905384884  0.9628157923167148  0.6287466587536483   T   T   T
  0.9998640733633207  0.2498724633295606  0.5251199693981000   T   T   T
  0.9998613361493597  0.5001619179747530  0.5250924499144707   T   T   T
  0.0014977475934687  0.7512054775299392  0.5257757853428414   T   T   T
  0.0016609814443867  0.9989137349231976  0.5257813290434454   T   T   T
  0.2498636767066343  0.2498849646377059  0.5251805149617553   T   T   T
  0.2499119201568389  0.5001226997315990  0.5251897043412146   T   T   T
  0.2509619148222415  0.7520717300776713  0.5260716409017674   T   T   T
  0.2508714502302293  0.9979576446240557  0.5260411950140857   T   T   T
  0.4999762498547985  0.2498843195666550  0.5251472274638534   T   T   T
  0.5000059272389853  0.5000887490154999  0.5251487859594695   T   T   T
  0.4988084281768237  0.7518320979631209  0.5260534138459941   T   T   T
  0.4989323131640155  0.9978928958380635  0.5260720860028010   T   T   T
  0.7502335241419997  0.2499602586851505  0.5249823344737194   T   T   T
  0.7501222458692977  0.5002179202199729  0.5250365508673659   T   T   T
  0.7489143652718826  0.7516159183325324  0.5257385881944269   T   T   T
  0.7492621446050632  0.9987349564675596  0.5256650774435854   T   T   T
  0.1240162926093337  0.1270791355216156  0.5747740018473740   T   T   T
  0.1241194091184228  0.3750450780597125  0.5747343681175721   T   T   T
  0.1239334005480350  0.6229013541649435  0.5747696215882023   T   T   T
  0.1231348136258375  0.8748190688870102  0.5794664701025967   T   T   T
  0.3755301921973067  0.1274349422522011  0.5746398357969412   T   T   T
  0.3752590554181006  0.3746712031137452  0.5747598761767632   T   T   T
  0.3753208681276724  0.6220631771306923  0.5746170515425203   T   T   T
  0.3699064009170895  0.8744504102983015  0.5874802018928107   T   T   T
  0.6259288382338110  0.1270264726217685  0.5745363270796119   T   T   T
  0.6256556799095664  0.3747181641475341  0.5747318809446598   T   T   T
  0.6260472466197108  0.6227740081739058  0.5745895343730724   T   T   T
  0.6283119891052847  0.8743957045640430  0.5776795304749194   T   T   T
  0.8742251598316525  0.1267614414610903  0.5747885916284583   T   T   T
  0.8746993495098760  0.3751726756885879  0.5747430879887105   T   T   T
  0.8744824392221526  0.6234293053610966  0.5747623417769223   T   T   T
  0.8772905846161259  0.8753122372585341  0.5752008553645354   T   T   T
  0.2500000000000000  0.0000000000000000  0.4249999999999972   F   F   F
  0.2500000000000000  0.2500000000000000  0.4249999999999972   F   F   F
  0.2500000000000000  0.5000000000000000  0.4249999999999972   F   F   F
  0.2500000000000000  0.7500000000000000  0.4249999999999972   F   F   F
  0.5000000000000000  0.0000000000000000  0.4249999999999972   F   F   F
  0.5000000000000000  0.2500000000000000  0.4249999999999972   F   F   F
  0.5000000000000000  0.5000000000000000  0.4249999999999972   F   F   F
  0.5000000000000000  0.7500000000000000  0.4249999999999972   F   F   F
  0.7500000000000000  0.0000000000000000  0.4249999999999972   F   F   F
  0.7500000000000000  0.2500000000000000  0.4249999999999972   F   F   F
  0.7500000000000000  0.5000000000000000  0.4249999999999972   F   F   F
  0.7500000000000000  0.7500000000000000  0.4249999999999972   F   F   F
  0.0000000000000000  0.0000000000000000  0.4249999999999972   F   F   F
  0.0000000000000000  0.2500000000000000  0.4249999999999972   F   F   F
  0.0000000000000000  0.5000000000000000  0.4249999999999972   F   F   F
  0.0000000000000000  0.7500000000000000  0.4249999999999972   F   F   F
  0.1250000000000000  0.1250000000000000  0.4750000000000014   F   F   F
  0.1250000000000000  0.3750000000000000  0.4750000000000014   F   F   F
  0.1250000000000000  0.6250000000000000  0.4750000000000014   F   F   F
  0.1250000000000000  0.8750000000000000  0.4750000000000014   F   F   F
  0.3750000000000000  0.1250000000000000  0.4750000000000014   F   F   F
  0.3750000000000000  0.3750000000000000  0.4750000000000014   F   F   F
  0.3750000000000000  0.6250000000000000  0.4750000000000014   F   F   F
  0.3750000000000000  0.8750000000000000  0.4750000000000014   F   F   F
  0.6250000000000000  0.1250000000000000  0.4750000000000014   F   F   F
  0.6250000000000000  0.3750000000000000  0.4750000000000014   F   F   F
  0.6250000000000000  0.6250000000000000  0.4750000000000014   F   F   F
  0.6250000000000000  0.8750000000000000  0.4750000000000014   F   F   F
  0.8750000000000000  0.1250000000000000  0.4750000000000014   F   F   F
  0.8750000000000000  0.3750000000000000  0.4750000000000014   F   F   F
  0.8750000000000000  0.6250000000000000  0.4750000000000014   F   F   F
  0.8750000000000000  0.8750000000000000  0.4750000000000014   F   F   F
  0.2313498971699818  0.8730354367277953  0.6177482708571355   T   T   T
  0.5180420377339571  0.8777486749543137  0.6214935130886603   T   T   T
 
  0.00000000E+00  0.00000000E+00  0.00000000E+00
  0.00000000E+00  0.00000000E+00  0.00000000E+00
  0.00000000E+00  0.00000000E+00  0.00000000E+00
  0.00000000E+00  0.00000000E+00  0.00000000E+00
  0.00000000E+00  0.00000000E+00  0.00000000E+00
  0.00000000E+00  0.00000000E+00  0.00000000E+00
  0.00000000E+00  0.00000000E+00  0.00000000E+00
  0.00000000E+00  0.00000000E+00  0.00000000E+00
  0.00000000E+00  0.00000000E+00  0.00000000E+00
  0.00000000E+00  0.00000000E+00  0.00000000E+00
  0.00000000E+00  0.00000000E+00  0.00000000E+00
  0.00000000E+00  0.00000000E+00  0.00000000E+00
  0.00000000E+00  0.00000000E+00  0.00000000E+00
  0.00000000E+00  0.00000000E+00  0.00000000E+00
  0.00000000E+00  0.00000000E+00  0.00000000E+00
  0.00000000E+00  0.00000000E+00  0.00000000E+00
  0.00000000E+00  0.00000000E+00  0.00000000E+00
  0.00000000E+00  0.00000000E+00  0.00000000E+00
  0.00000000E+00  0.00000000E+00  0.00000000E+00
  0.00000000E+00  0.00000000E+00  0.00000000E+00
  0.00000000E+00  0.00000000E+00  0.00000000E+00
  0.00000000E+00  0.00000000E+00  0.00000000E+00
  0.00000000E+00  0.00000000E+00  0.00000000E+00
  0.00000000E+00  0.00000000E+00  0.00000000E+00
  0.00000000E+00  0.00000000E+00  0.00000000E+00
  0.00000000E+00  0.00000000E+00  0.00000000E+00
  0.00000000E+00  0.00000000E+00  0.00000000E+00
  0.00000000E+00  0.00000000E+00  0.00000000E+00
  0.00000000E+00  0.00000000E+00  0.00000000E+00
  0.00000000E+00  0.00000000E+00  0.00000000E+00
  0.00000000E+00  0.00000000E+00  0.00000000E+00
  0.00000000E+00  0.00000000E+00  0.00000000E+00
  0.00000000E+00  0.00000000E+00  0.00000000E+00
  0.00000000E+00  0.00000000E+00  0.00000000E+00
  0.00000000E+00  0.00000000E+00  0.00000000E+00
  0.00000000E+00  0.00000000E+00  0.00000000E+00
  0.00000000E+00  0.00000000E+00  0.00000000E+00
  0.00000000E+00  0.00000000E+00  0.00000000E+00
  0.00000000E+00  0.00000000E+00  0.00000000E+00
  0.00000000E+00  0.00000000E+00  0.00000000E+00
  0.00000000E+00  0.00000000E+00  0.00000000E+00
  0.00000000E+00  0.00000000E+00  0.00000000E+00
  0.00000000E+00  0.00000000E+00  0.00000000E+00
  0.00000000E+00  0.00000000E+00  0.00000000E+00
  0.00000000E+00  0.00000000E+00  0.00000000E+00
  0.00000000E+00  0.00000000E+00  0.00000000E+00
  0.00000000E+00  0.00000000E+00  0.00000000E+00
  0.00000000E+00  0.00000000E+00  0.00000000E+00
  0.00000000E+00  0.00000000E+00  0.00000000E+00
  0.00000000E+00  0.00000000E+00  0.00000000E+00
  0.00000000E+00  0.00000000E+00  0.00000000E+00
  0.00000000E+00  0.00000000E+00  0.00000000E+00
  0.00000000E+00  0.00000000E+00  0.00000000E+00
  0.00000000E+00  0.00000000E+00  0.00000000E+00
  0.00000000E+00  0.00000000E+00  0.00000000E+00
  0.00000000E+00  0.00000000E+00  0.00000000E+00
  0.00000000E+00  0.00000000E+00  0.00000000E+00
  0.00000000E+00  0.00000000E+00  0.00000000E+00
  0.00000000E+00  0.00000000E+00  0.00000000E+00
  0.00000000E+00  0.00000000E+00  0.00000000E+00
  0.00000000E+00  0.00000000E+00  0.00000000E+00
  0.00000000E+00  0.00000000E+00  0.00000000E+00
  0.00000000E+00  0.00000000E+00  0.00000000E+00
  0.00000000E+00  0.00000000E+00  0.00000000E+00
  0.00000000E+00  0.00000000E+00  0.00000000E+00
  0.00000000E+00  0.00000000E+00  0.00000000E+00
  0.00000000E+00  0.00000000E+00  0.00000000E+00
