H1 Ir32 O73                             
   1.00000000000000     
     9.0898780000000006    0.0000000000000000    0.0000000000000000
     0.0000000000000000   11.1045669999999994   -0.0793000000000000
     0.0000000000000000    0.0000000000000000   31.3300599999999996
   H    Ir   O 
     1    32    73
Direct
  0.2666104993663277  0.0094743708066159  0.6909960841042639
  0.2632208222803066  0.3288578659969708  0.3750700377250263
  0.2632636901472835  0.8288294633372654  0.3750768592758977
  0.7632474994262110  0.3288713181800068  0.3750742550245538
  0.7632323946862902  0.8288745442800518  0.3750764867593754
  0.9878049235160689  0.0790128856560114  0.3755952351455135
  0.9877870244364896  0.5790221101932395  0.3755808572678238
  0.4878110497389941  0.0790168243411039  0.3755948041204975
  0.4883018797524135  0.5788052830580989  0.3753989948164471
  0.2482564725604052  0.0023387122221379  0.4573747648979700
  0.2480814832275638  0.5024039627660065  0.4571838893207611
  0.7482200967242580  0.0023211342115542  0.4573682350290209
  0.7482804684045993  0.5024195134424473  0.4574168973483291
  0.0018855148421925  0.2530451883330058  0.4577318885913123
  0.0018869950256845  0.7530459966953170  0.4577374670818993
  0.5018787898429137  0.2530444980041592  0.4577343671025659
  0.5018990892163525  0.7530096466711095  0.4576907104389237
  0.2510282602989876  0.1672252230548520  0.5409806076868151
  0.2512901193393660  0.6666701346925969  0.5410743736805014
  0.7509162110747183  0.1673711994351899  0.5409913419166978
  0.7509508661605447  0.6672722499048142  0.5409775799966855
  0.0013544635463654  0.4168043661968188  0.5422459068815518
  0.0007728677690681  0.9169991349702969  0.5422782695221767
  0.5010864925012749  0.4169399792400071  0.5422075181872931
  0.5010208322247993  0.9168080621904182  0.5423068098810865
  0.2482320321843229  0.3344423124510619  0.6275091981857164
  0.2421466181530862  0.8356999321170160  0.6258498606391317
  0.7477009695642732  0.3340159415417882  0.6277708357864935
  0.7484316685645090  0.8343876447217264  0.6275274889795104
  0.0049577189873354  0.0855321467623833  0.6268641159924737
  0.0055530000217130  0.5850830679783601  0.6270453517931467
  0.5057166732182694  0.0848795533892261  0.6270201495433707
  0.5054814088819680  0.5851200210009861  0.6269761826050581
  0.3465705195099176  0.1881436628031273  0.3510766045621344
  0.3465610247982052  0.6881436473680939  0.3510708786739791
  0.8465684552932369  0.1881459159999080  0.3510763839661428
  0.8465641403095083  0.6881467496627147  0.3510760588709107
  0.0956428390296995  0.2318966543937884  0.3993323850742760
  0.0956411857496167  0.7318965842586483  0.3993328009544851
  0.5956430534224953  0.2318971166305513  0.3993325526253546
  0.5956592584400779  0.7318991155447025  0.3993283857927933
  0.1529465275476203  0.4817943759077699  0.3993074181232590
  0.1529652267204553  0.9817978166906212  0.3993134476282760
  0.6529859769833614  0.4817920250443599  0.3993119547872040
  0.6529629667941359  0.9817995188311934  0.3993139412651629
  0.4028215112527764  0.4369881148777305  0.3505094708445260
  0.4028568743316345  0.9371198451316859  0.3505528531154231
  0.9028535005010749  0.4371073836883742  0.3505481209045974
  0.9028584680792996  0.9371204094946514  0.3505523883031276
  0.3426836766245293  0.3532021357863983  0.4339926222941190
  0.3426936708805968  0.8532061600254141  0.4339938066533288
  0.8426851021368198  0.3532054383638222  0.4339947803695482
  0.8426842689731647  0.8532049271172231  0.4339939274012869
  0.0958486157480992  0.4005551205132331  0.4845191010160115
  0.0958419374516227  0.9005527466271374  0.4845210947251497
  0.5958409759352130  0.4005552226995092  0.4845214139470008
  0.5958350624792456  0.9005479494154855  0.4845224547076012
  0.1531513284660384  0.1490767890570815  0.4839963168690665
  0.1531241483150489  0.6490827646174235  0.4839921102995292
  0.6531462769274975  0.1490824725262739  0.4839968694819726
  0.6531396829567595  0.6490789616327314  0.4839959769833657
  0.4046174342052086  0.1017258040639957  0.4339871773051808
  0.4042470686405479  0.6020814929510440  0.4334279856511425
  0.9046181511817359  0.1017270307900704  0.4339872382035126
  0.9046204214831248  0.6017284983283723  0.4339875685931390
  0.3468205674848234  0.0180970647356695  0.5159647237788570
  0.3459565573315787  0.5184144861547155  0.5155354026627456
  0.8468251224110475  0.0180894660973290  0.5159615317038320
  0.8468256225845875  0.5180927720220256  0.5159667051001585
  0.0960837175696728  0.0659376941117696  0.5666985626678149
  0.0959963896109683  0.5659700775486838  0.5666907130166535
  0.5960186741498626  0.0660698257507093  0.5667247673916094
  0.5959750691355572  0.5659832218284759  0.5666888807787178
  0.1570997894971759  0.3136563043744525  0.5660474469107887
  0.1570217271662964  0.8136256517761697  0.5660413060317530
  0.6570466578109219  0.3136560076839769  0.5660489783015277
  0.6570994056853806  0.8136575811065910  0.5660458504095507
  0.4045941938383172  0.2680162243731503  0.5159697549703860
  0.4045958215503450  0.7679980979644316  0.5159714563376666
  0.9046027432279821  0.2680132554972624  0.5159698759224970
  0.9045919169750947  0.7680137350920645  0.5159713980635660
  0.3449798036434419  0.1868450343982348  0.6001208323283663
  0.3449165288179248  0.6869290910193728  0.6001437818238692
  0.8448687661490706  0.1869641124829727  0.6001682619051122
  0.8449214411590320  0.6869372796338450  0.6001682513613881
  0.0962097787303846  0.2323148246593691  0.6491996668807917
  0.0968582942208914  0.7321095506143821  0.6493951982725895
  0.5960241834471607  0.2322994895986780  0.6492453223934396
  0.5970342467327354  0.7325427484879361  0.6487961138900259
  0.1501759925920589  0.4832872317187070  0.6477509720032582
  0.1501008112683043  0.9809720992719461  0.6480781233396216
  0.6501797050355050  0.4832918901285846  0.6477554996913443
  0.6501402695182436  0.9833006128902269  0.6477535613706414
  0.4023549326593402  0.4367765917557344  0.6001147082173925
  0.4023697597231204  0.9366032974976340  0.6002104310642506
  0.9023574587443963  0.4367331479527725  0.6001189227940458
  0.9023434457978609  0.9368429365936998  0.6001360247474977
  0.3433028724041570  0.3490288921416635  0.6784532498031032
  0.8433454169801461  0.3490396266203750  0.6784557812864372
  0.8433780988449877  0.8490273807726944  0.6784521519732306
  0.9068957564086033  0.0934944789771246  0.6761300075979613
  0.9068727077958697  0.5935312273799600  0.6761201235050435
  0.4026925081593865  0.1014122631548848  0.6762391793331521
  0.4068819322292015  0.5935152084472752  0.6761078555868433
  0.3455792050626825  0.8508999745782667  0.6820647566883394
  0.3071358609925798  0.9399588044203887  0.7095743527736211
 
  0.00000000E+00  0.00000000E+00  0.00000000E+00
  0.00000000E+00  0.00000000E+00  0.00000000E+00
  0.00000000E+00  0.00000000E+00  0.00000000E+00
  0.00000000E+00  0.00000000E+00  0.00000000E+00
  0.00000000E+00  0.00000000E+00  0.00000000E+00
  0.00000000E+00  0.00000000E+00  0.00000000E+00
  0.00000000E+00  0.00000000E+00  0.00000000E+00
  0.00000000E+00  0.00000000E+00  0.00000000E+00
  0.00000000E+00  0.00000000E+00  0.00000000E+00
  0.00000000E+00  0.00000000E+00  0.00000000E+00
  0.00000000E+00  0.00000000E+00  0.00000000E+00
  0.00000000E+00  0.00000000E+00  0.00000000E+00
  0.00000000E+00  0.00000000E+00  0.00000000E+00
  0.00000000E+00  0.00000000E+00  0.00000000E+00
  0.00000000E+00  0.00000000E+00  0.00000000E+00
  0.00000000E+00  0.00000000E+00  0.00000000E+00
  0.00000000E+00  0.00000000E+00  0.00000000E+00
  0.00000000E+00  0.00000000E+00  0.00000000E+00
  0.00000000E+00  0.00000000E+00  0.00000000E+00
  0.00000000E+00  0.00000000E+00  0.00000000E+00
  0.00000000E+00  0.00000000E+00  0.00000000E+00
  0.00000000E+00  0.00000000E+00  0.00000000E+00
  0.00000000E+00  0.00000000E+00  0.00000000E+00
  0.00000000E+00  0.00000000E+00  0.00000000E+00
  0.00000000E+00  0.00000000E+00  0.00000000E+00
  0.00000000E+00  0.00000000E+00  0.00000000E+00
  0.00000000E+00  0.00000000E+00  0.00000000E+00
  0.00000000E+00  0.00000000E+00  0.00000000E+00
  0.00000000E+00  0.00000000E+00  0.00000000E+00
  0.00000000E+00  0.00000000E+00  0.00000000E+00
  0.00000000E+00  0.00000000E+00  0.00000000E+00
  0.00000000E+00  0.00000000E+00  0.00000000E+00
  0.00000000E+00  0.00000000E+00  0.00000000E+00
  0.00000000E+00  0.00000000E+00  0.00000000E+00
  0.00000000E+00  0.00000000E+00  0.00000000E+00
  0.00000000E+00  0.00000000E+00  0.00000000E+00
  0.00000000E+00  0.00000000E+00  0.00000000E+00
  0.00000000E+00  0.00000000E+00  0.00000000E+00
  0.00000000E+00  0.00000000E+00  0.00000000E+00
  0.00000000E+00  0.00000000E+00  0.00000000E+00
  0.00000000E+00  0.00000000E+00  0.00000000E+00
  0.00000000E+00  0.00000000E+00  0.00000000E+00
  0.00000000E+00  0.00000000E+00  0.00000000E+00
  0.00000000E+00  0.00000000E+00  0.00000000E+00
  0.00000000E+00  0.00000000E+00  0.00000000E+00
  0.00000000E+00  0.00000000E+00  0.00000000E+00
  0.00000000E+00  0.00000000E+00  0.00000000E+00
  0.00000000E+00  0.00000000E+00  0.00000000E+00
  0.00000000E+00  0.00000000E+00  0.00000000E+00
  0.00000000E+00  0.00000000E+00  0.00000000E+00
  0.00000000E+00  0.00000000E+00  0.00000000E+00
  0.00000000E+00  0.00000000E+00  0.00000000E+00
  0.00000000E+00  0.00000000E+00  0.00000000E+00
  0.00000000E+00  0.00000000E+00  0.00000000E+00
  0.00000000E+00  0.00000000E+00  0.00000000E+00
  0.00000000E+00  0.00000000E+00  0.00000000E+00
  0.00000000E+00  0.00000000E+00  0.00000000E+00
  0.00000000E+00  0.00000000E+00  0.00000000E+00
  0.00000000E+00  0.00000000E+00  0.00000000E+00
  0.00000000E+00  0.00000000E+00  0.00000000E+00
  0.00000000E+00  0.00000000E+00  0.00000000E+00
  0.00000000E+00  0.00000000E+00  0.00000000E+00
  0.00000000E+00  0.00000000E+00  0.00000000E+00
  0.00000000E+00  0.00000000E+00  0.00000000E+00
  0.00000000E+00  0.00000000E+00  0.00000000E+00
  0.00000000E+00  0.00000000E+00  0.00000000E+00
  0.00000000E+00  0.00000000E+00  0.00000000E+00
  0.00000000E+00  0.00000000E+00  0.00000000E+00
  0.00000000E+00  0.00000000E+00  0.00000000E+00
  0.00000000E+00  0.00000000E+00  0.00000000E+00
  0.00000000E+00  0.00000000E+00  0.00000000E+00
  0.00000000E+00  0.00000000E+00  0.00000000E+00
  0.00000000E+00  0.00000000E+00  0.00000000E+00
  0.00000000E+00  0.00000000E+00  0.00000000E+00
  0.00000000E+00  0.00000000E+00  0.00000000E+00
  0.00000000E+00  0.00000000E+00  0.00000000E+00
  0.00000000E+00  0.00000000E+00  0.00000000E+00
  0.00000000E+00  0.00000000E+00  0.00000000E+00
  0.00000000E+00  0.00000000E+00  0.00000000E+00
  0.00000000E+00  0.00000000E+00  0.00000000E+00
  0.00000000E+00  0.00000000E+00  0.00000000E+00
  0.00000000E+00  0.00000000E+00  0.00000000E+00
  0.00000000E+00  0.00000000E+00  0.00000000E+00
  0.00000000E+00  0.00000000E+00  0.00000000E+00
  0.00000000E+00  0.00000000E+00  0.00000000E+00
  0.00000000E+00  0.00000000E+00  0.00000000E+00
  0.00000000E+00  0.00000000E+00  0.00000000E+00
  0.00000000E+00  0.00000000E+00  0.00000000E+00
  0.00000000E+00  0.00000000E+00  0.00000000E+00
  0.00000000E+00  0.00000000E+00  0.00000000E+00
  0.00000000E+00  0.00000000E+00  0.00000000E+00
  0.00000000E+00  0.00000000E+00  0.00000000E+00
  0.00000000E+00  0.00000000E+00  0.00000000E+00
  0.00000000E+00  0.00000000E+00  0.00000000E+00
  0.00000000E+00  0.00000000E+00  0.00000000E+00
  0.00000000E+00  0.00000000E+00  0.00000000E+00
  0.00000000E+00  0.00000000E+00  0.00000000E+00
  0.00000000E+00  0.00000000E+00  0.00000000E+00
  0.00000000E+00  0.00000000E+00  0.00000000E+00
  0.00000000E+00  0.00000000E+00  0.00000000E+00
  0.00000000E+00  0.00000000E+00  0.00000000E+00
  0.00000000E+00  0.00000000E+00  0.00000000E+00
  0.00000000E+00  0.00000000E+00  0.00000000E+00
  0.00000000E+00  0.00000000E+00  0.00000000E+00
  0.00000000E+00  0.00000000E+00  0.00000000E+00
  0.00000000E+00  0.00000000E+00  0.00000000E+00
