Ba10 Sr10 Co24 H1 O69                   
    1.000000000000000     
    11.1057150000000000    0.0000000000000000    0.0000000000000000
    -0.0047930000000000    5.5528550000000001    0.0000000000000000
     0.0000000000000000    0.0000000000000000   87.2902260000000041
   Ba   Sr   Co   H    O 
    10    10    24     1    69
Direct
  0.9997740770960764  0.9983946988172741  0.5550726176434829
  0.5001824529252497  0.9983742541626532  0.5550643030038340
  0.2508560272362721  0.5002910569617487  0.6010104326977763
  0.7529521938723659  0.5002485505357646  0.6008777334101494
  0.0005766245410776  0.9986796307315522  0.4637130687071311
  0.5005919684623823  0.9986203879558390  0.4637084014739573
  0.2495013525374241  0.4956803854207644  0.5094446859122149
  0.7494787050460789  0.4957694008924813  0.5094494758347928
  0.2499337579534795  0.5002907657691157  0.4168288924905414
  0.7499103022817336  0.5001677974817084  0.4168289817994706
  0.2499298054631460  0.4914383197989241  0.5552689166765215
  0.7502055977132959  0.4918012240149967  0.5552630847378055
  0.5010590808004036  0.0045634146811887  0.6009700658239263
 -0.0005303103421306  0.0072357420022982  0.6009982833215398
  0.2526798725159183  0.4992940316222491  0.4633173993872985
  0.7519801185406543  0.4971707232008877  0.4633873103504987
  0.4997560434192597  0.9920321225875465  0.5089144661669976
  0.9998064663816029  0.9920077448128299  0.5089171554990513
  0.5000253868068236  0.9998396125329755  0.4175545583400653
  0.0000545004161555  0.9998421458688715  0.4175524522383159
  0.2488239534177038  0.0094227480466772  0.6227516862880823
  0.7479365449674409  0.0101118184846891  0.6217843302301785
  0.0017460914291063  0.5112413733592811  0.6218771850953547
  0.5019487402018592  0.5120145184327267  0.6218773995263515
  0.9995896655440301  0.5087266846734700  0.5781727726731211
  0.4996488021494088  0.5085581561623150  0.5780454524810495
  0.2499768608056839  0.0005238559227383  0.5773743580076446
  0.7499262974617492  0.0007126452811027  0.5773617379207647
  0.2502883169802752  0.9979896034975683  0.5320575703733950
  0.7501407733618455  0.9986406675771632  0.5320464126090276
  0.9997927499404712  0.4992773253728675  0.5320213957759479
  0.4998018435857086  0.4991519248374381  0.5320204942241653
  0.9992141478802923  0.5060377385802678  0.4863758985796182
  0.4991822131981836  0.5059116813493131  0.4863806753276390
  0.2499849054307187 -0.0000495210387847  0.4866912461573459
  0.7499873235917306  0.9998442432410888  0.4866864734923654
  0.2501889279082002  0.9991487176318922  0.4413274012223938
  0.7506600924117750  0.9983208361090843  0.4412935601284041
  0.0001261758009644  0.4995412555745144  0.4413316498527762
  0.5002112578148300  0.4995005175828818  0.4413266728773450
  0.9981719088323634  0.5105710378764563  0.3953528024859770
  0.4981694329501724  0.5105803868596545  0.3953522411680502
  0.2517654523480569  0.0107537074449271  0.3953124541389642
  0.7517660745541140  0.0107448263117132  0.3953120431511264
  0.2482852122570450  0.1768647023324156  0.6469407367521641
  0.0000042593484660  0.4998609974845497  0.6004355548676384
  0.4999942483681454  0.4998683744240291  0.6004359715112950
  0.9953038990570968  0.4998705585006084  0.5531785601255668
  0.5046945960930159  0.4999954718516109  0.5531794096389619
  0.1309108320550734  0.7874989434425209  0.6224126567064827
  0.6310041547655120  0.7876399244474661  0.6228982481279935
  0.3811583986201454  0.7124028269874133  0.6229015059785228
  0.8810698771622173  0.7125043769226980  0.6229047967638549
  0.3691147394267315  0.2125577756611540  0.6228864063476957
  0.8691188478994853  0.2080779200695904  0.6227506930665541
  0.1188294148312686  0.2876394725057273  0.6229003711500962
  0.6189343919706289  0.2874728336462107  0.6229023664114589
  0.2499989446174297 -0.0000622906586935  0.5542749610744002
  0.7499993111677823 -0.0000658077931680  0.5542754396673600
  0.2500102238610221 -0.0000320431260021  0.5995880108283697
  0.7499986765746788 -0.0000697680542948  0.5995623124316529
  0.3771919896221883  0.2802089069442895  0.5779812462558858
  0.8772041652743742  0.2801791389990425  0.5779932474279159
  0.1262736136505304  0.2247537942967838  0.5781135107419130
  0.6262722296823371  0.2247449195721087  0.5781149117527792
  0.1228503449917774  0.7198516760016458  0.5779777526695927
  0.6228504081346468  0.7198997837497153  0.5779857522369818
  0.3737457076862939  0.7751311986928352  0.5781143029624711
  0.8737460396462217  0.7751446948311053  0.5781156126895167
  0.9953142017440356  0.4999495610836963  0.5078625459210199
  0.4953164361404895  0.4999498606806896  0.5078629431888231
 -0.0000023644753140  0.4999326980342885  0.4644870557455935
  0.4999981326815129  0.4999316176522026  0.4644869978967442
  0.1380375977057151  0.7748070404479316  0.5327953961031341
  0.6380536145523994  0.7748539392113251  0.5327932650110468
  0.3880440130517964  0.7249455767031378  0.5327905060635889
  0.8880404395355467  0.7249932696247275  0.5327864297852392
  0.3619402754393533  0.2250326384748662  0.5327932596139259
  0.8619261470700669  0.2250005107231434  0.5327910401623555
  0.1119546234635048  0.2749505764211266  0.5327890447623743
  0.6119582825122757  0.2749012585442564  0.5327848477302143
  0.2500092851410823  0.9875125421612146  0.4635259866124039
  0.7500084329968231  0.9875142772053507  0.4635259037115420
  0.2499933339572965  0.9875620371709586  0.5088448687176568
  0.7499935715590433  0.9875629859491126  0.5088462466281046
  0.3928011678931445  0.2624495029691862  0.4869545106139583
  0.8928012002961870  0.2624498068269060  0.4869545556582474
  0.1428636066448592  0.2373800453123559  0.4864746245350002
  0.6428621714239823  0.2373817032556644  0.4864745431811301
  0.1072200767116913  0.7375455461326428  0.4869568881549194
  0.6072198519343431  0.7375446672738103  0.4869569354437428
  0.3571858842411787  0.7624932423051571  0.4864741798624054
  0.8571868279816270  0.7624913085996318  0.4864742139156167
  0.0000010193616643  0.4999419952203104  0.4191632847180048
  0.5000007659061383  0.4999409227442301  0.4191632429821636
  0.1380153620639603  0.7749228994372155  0.4406243152327696
  0.6380179821574684  0.7749185464849887  0.4406242645969720
  0.3857809654622132  0.7249573631170191  0.4406340596598174
  0.8857792456593184  0.7249612723691841  0.4406339821381007
  0.3619683741298986  0.2249708343338785  0.4406290322207183
  0.8619728267771862  0.2249707907172259  0.4406289838626983
  0.1142469330640730  0.2749254309901290  0.4406368682306285
  0.6142464144228136  0.2749260132187925  0.4406368972247583
  0.2499904327490015 -0.0000639317788232  0.4167651124361997
  0.7499909563648083 -0.0000665415691966  0.4167649967775414
  0.3881798375890806  0.2751061262347581  0.3937618472816091
  0.8881800403743401  0.2751073060092186  0.3937618143710327
  0.1380862693027455  0.2248010276906678  0.3937513267674124
  0.6380860773549288  0.2248016498590657  0.3937513760359548
  0.1118286250437496  0.7249229452351371  0.3937599884115519
  0.6118286585594376  0.7249221305912721  0.3937599528161942
  0.3619195803293210  0.7752102761168650  0.3937530539263289
  0.8619129583547372  0.7752051202578967  0.3937527448757699
  0.2499787617724172  0.0121874692026992  0.6432235289254079
 
  0.00000000E+00  0.00000000E+00  0.00000000E+00
  0.00000000E+00  0.00000000E+00  0.00000000E+00
  0.00000000E+00  0.00000000E+00  0.00000000E+00
  0.00000000E+00  0.00000000E+00  0.00000000E+00
  0.00000000E+00  0.00000000E+00  0.00000000E+00
  0.00000000E+00  0.00000000E+00  0.00000000E+00
  0.00000000E+00  0.00000000E+00  0.00000000E+00
  0.00000000E+00  0.00000000E+00  0.00000000E+00
  0.00000000E+00  0.00000000E+00  0.00000000E+00
  0.00000000E+00  0.00000000E+00  0.00000000E+00
  0.00000000E+00  0.00000000E+00  0.00000000E+00
  0.00000000E+00  0.00000000E+00  0.00000000E+00
  0.00000000E+00  0.00000000E+00  0.00000000E+00
  0.00000000E+00  0.00000000E+00  0.00000000E+00
  0.00000000E+00  0.00000000E+00  0.00000000E+00
  0.00000000E+00  0.00000000E+00  0.00000000E+00
  0.00000000E+00  0.00000000E+00  0.00000000E+00
  0.00000000E+00  0.00000000E+00  0.00000000E+00
  0.00000000E+00  0.00000000E+00  0.00000000E+00
  0.00000000E+00  0.00000000E+00  0.00000000E+00
  0.00000000E+00  0.00000000E+00  0.00000000E+00
  0.00000000E+00  0.00000000E+00  0.00000000E+00
  0.00000000E+00  0.00000000E+00  0.00000000E+00
  0.00000000E+00  0.00000000E+00  0.00000000E+00
  0.00000000E+00  0.00000000E+00  0.00000000E+00
  0.00000000E+00  0.00000000E+00  0.00000000E+00
  0.00000000E+00  0.00000000E+00  0.00000000E+00
  0.00000000E+00  0.00000000E+00  0.00000000E+00
  0.00000000E+00  0.00000000E+00  0.00000000E+00
  0.00000000E+00  0.00000000E+00  0.00000000E+00
  0.00000000E+00  0.00000000E+00  0.00000000E+00
  0.00000000E+00  0.00000000E+00  0.00000000E+00
  0.00000000E+00  0.00000000E+00  0.00000000E+00
  0.00000000E+00  0.00000000E+00  0.00000000E+00
  0.00000000E+00  0.00000000E+00  0.00000000E+00
  0.00000000E+00  0.00000000E+00  0.00000000E+00
  0.00000000E+00  0.00000000E+00  0.00000000E+00
  0.00000000E+00  0.00000000E+00  0.00000000E+00
  0.00000000E+00  0.00000000E+00  0.00000000E+00
  0.00000000E+00  0.00000000E+00  0.00000000E+00
  0.00000000E+00  0.00000000E+00  0.00000000E+00
  0.00000000E+00  0.00000000E+00  0.00000000E+00
  0.00000000E+00  0.00000000E+00  0.00000000E+00
  0.00000000E+00  0.00000000E+00  0.00000000E+00
  0.00000000E+00  0.00000000E+00  0.00000000E+00
  0.00000000E+00  0.00000000E+00  0.00000000E+00
  0.00000000E+00  0.00000000E+00  0.00000000E+00
  0.00000000E+00  0.00000000E+00  0.00000000E+00
  0.00000000E+00  0.00000000E+00  0.00000000E+00
  0.00000000E+00  0.00000000E+00  0.00000000E+00
  0.00000000E+00  0.00000000E+00  0.00000000E+00
  0.00000000E+00  0.00000000E+00  0.00000000E+00
  0.00000000E+00  0.00000000E+00  0.00000000E+00
  0.00000000E+00  0.00000000E+00  0.00000000E+00
  0.00000000E+00  0.00000000E+00  0.00000000E+00
  0.00000000E+00  0.00000000E+00  0.00000000E+00
  0.00000000E+00  0.00000000E+00  0.00000000E+00
  0.00000000E+00  0.00000000E+00  0.00000000E+00
  0.00000000E+00  0.00000000E+00  0.00000000E+00
  0.00000000E+00  0.00000000E+00  0.00000000E+00
  0.00000000E+00  0.00000000E+00  0.00000000E+00
  0.00000000E+00  0.00000000E+00  0.00000000E+00
  0.00000000E+00  0.00000000E+00  0.00000000E+00
  0.00000000E+00  0.00000000E+00  0.00000000E+00
  0.00000000E+00  0.00000000E+00  0.00000000E+00
  0.00000000E+00  0.00000000E+00  0.00000000E+00
  0.00000000E+00  0.00000000E+00  0.00000000E+00
  0.00000000E+00  0.00000000E+00  0.00000000E+00
  0.00000000E+00  0.00000000E+00  0.00000000E+00
  0.00000000E+00  0.00000000E+00  0.00000000E+00
  0.00000000E+00  0.00000000E+00  0.00000000E+00
  0.00000000E+00  0.00000000E+00  0.00000000E+00
  0.00000000E+00  0.00000000E+00  0.00000000E+00
  0.00000000E+00  0.00000000E+00  0.00000000E+00
  0.00000000E+00  0.00000000E+00  0.00000000E+00
  0.00000000E+00  0.00000000E+00  0.00000000E+00
  0.00000000E+00  0.00000000E+00  0.00000000E+00
  0.00000000E+00  0.00000000E+00  0.00000000E+00
  0.00000000E+00  0.00000000E+00  0.00000000E+00
  0.00000000E+00  0.00000000E+00  0.00000000E+00
  0.00000000E+00  0.00000000E+00  0.00000000E+00
  0.00000000E+00  0.00000000E+00  0.00000000E+00
  0.00000000E+00  0.00000000E+00  0.00000000E+00
  0.00000000E+00  0.00000000E+00  0.00000000E+00
  0.00000000E+00  0.00000000E+00  0.00000000E+00
  0.00000000E+00  0.00000000E+00  0.00000000E+00
  0.00000000E+00  0.00000000E+00  0.00000000E+00
  0.00000000E+00  0.00000000E+00  0.00000000E+00
  0.00000000E+00  0.00000000E+00  0.00000000E+00
  0.00000000E+00  0.00000000E+00  0.00000000E+00
  0.00000000E+00  0.00000000E+00  0.00000000E+00
  0.00000000E+00  0.00000000E+00  0.00000000E+00
  0.00000000E+00  0.00000000E+00  0.00000000E+00
  0.00000000E+00  0.00000000E+00  0.00000000E+00
  0.00000000E+00  0.00000000E+00  0.00000000E+00
  0.00000000E+00  0.00000000E+00  0.00000000E+00
  0.00000000E+00  0.00000000E+00  0.00000000E+00
  0.00000000E+00  0.00000000E+00  0.00000000E+00
  0.00000000E+00  0.00000000E+00  0.00000000E+00
  0.00000000E+00  0.00000000E+00  0.00000000E+00
  0.00000000E+00  0.00000000E+00  0.00000000E+00
  0.00000000E+00  0.00000000E+00  0.00000000E+00
  0.00000000E+00  0.00000000E+00  0.00000000E+00
  0.00000000E+00  0.00000000E+00  0.00000000E+00
  0.00000000E+00  0.00000000E+00  0.00000000E+00
  0.00000000E+00  0.00000000E+00  0.00000000E+00
  0.00000000E+00  0.00000000E+00  0.00000000E+00
  0.00000000E+00  0.00000000E+00  0.00000000E+00
  0.00000000E+00  0.00000000E+00  0.00000000E+00
  0.00000000E+00  0.00000000E+00  0.00000000E+00
  0.00000000E+00  0.00000000E+00  0.00000000E+00
  0.00000000E+00  0.00000000E+00  0.00000000E+00
  0.00000000E+00  0.00000000E+00  0.00000000E+00
  0.00000000E+00  0.00000000E+00  0.00000000E+00
