ALGO = Fast
EDIFF = 0.0001
EDIFFG = -0.05
ENCUT = 500
GGA = PE
IBRION = 2
ISIF = 0
ISMEAR = 0
ISPIN = 2
ISTART = 1
ISYM = 0
LASPH = True
LORBIT = 11
LREAL = False
LWAVE = True
MAGMOM = 2*1.2 4*0.6
NCORE = 4
NELM = 80
NSW = 300
PREC = Accurate
SIGMA = 0.2
SYMPREC = 1e-10
