Ir2 O4
1.0
0.000000 0.000000 -3.189507
4.544939 -4.544939 0.000000
-4.544939 0.000000 -0.000000
Ir O
2 4
direct
0.500000 0.500000 0.000000 Ir4+
0.000000 0.000000 0.000000 Ir4+
0.000000 0.308354 0.616708 O2-
0.500000 0.808354 1.000000 O2-
0.000000 0.691646 0.383292 O2-
0.500000 0.191646 1.000000 O2-
