Ba10 Sr10 Co24 H1 O70                   
    1.000000000000000     
    11.1057150000000000    0.0000000000000000    0.0000000000000000
    -0.0047930000000000    5.5528550000000001    0.0000000000000000
     0.0000000000000000    0.0000000000000000   87.2902260000000041
   Ba   Sr   Co   H    O 
    10    10    24     1    70
Direct
  0.9967737045149250  0.9996762314536662  0.5553172159183885
  0.4988142455169799  0.9985568359376948  0.5550891956479670
  0.2471256672806611  0.5024117855659299  0.6009199203049382
  0.7527606879879214  0.5020063399096136  0.6008890425847646
 -0.0005663120201684  0.9976777901540922  0.4636579658607213
  0.4994553945040637  0.9975899141583479  0.4636487963044652
  0.2482885832644209  0.4960506901703842  0.5095675052368057
  0.7481410234236258  0.4959207886651357  0.5095507946548271
  0.2489961022403531  0.5001465782576765  0.4167811303751520
  0.7490007089971448  0.5002001365986206  0.4167794367056395
  0.2485410404731156  0.4921833381338974  0.5553727723171656
  0.7495391359611919  0.4949634769773087  0.5553138485316566
  0.4998911862542485  0.0080650242396671  0.6010707955167074
 -0.0001813685539456  0.0083491512196466  0.6011240246721554
  0.2526001350524927  0.4993343895185919  0.4633056293002765
  0.7483775347488788  0.4909307530664506  0.4633145210256355
  0.4983166432448554  0.9917773035124680  0.5087474485957781
  0.9984984945727100  0.9920130533225081  0.5087720360320255
  0.4997063625516683 -0.0002433737343263  0.4175358838538097
 -0.0002594476969371 -0.0002299915253748  0.4175338792889016
  0.2485561766340723  0.0090150044270668  0.6224090454012953
  0.7477632507852426  0.0104743984469003  0.6217691896445164
  0.0017160789123824  0.5112291244315504  0.6218707982857352
  0.5017369108236265  0.5119001585035713  0.6218456367525769
  0.9988868659273541  0.5104678033887964  0.5781254875646521
  0.4989217146946867  0.5103644757842852  0.5781721221120577
  0.2503631284357883  0.0091738060191022  0.5779485037644910
  0.7499362195030168  0.0078598509223879  0.5776372760411941
  0.2508221977499097  0.9917217607531824  0.5323540225950195
  0.7509880677674401  0.9913172803962289  0.5321919661036169
  0.9985772799878329  0.4910090309764655  0.5319035102397502
  0.4985848263275393  0.4908897379646745  0.5319119695121326
  0.9989183336802191  0.5062698803739157  0.4863197820600068
  0.4988970892388034  0.5059893336494218  0.4863498467998805
  0.2497235758704949 -0.0000041163273355  0.4866858383450046
  0.7498030972598230  0.9995105165385059  0.4866801561119495
  0.2507583339359910  0.9911450689752695  0.4408289259161238
  0.7511800640804108  0.9904248809112736  0.4407797390501746
 -0.0015953148422265  0.4900186444529076  0.4407186361968338
  0.4982744954302626  0.4897787542882918  0.4406563314493838
  0.9979208411048484  0.5107986902981021  0.3953109880742994
  0.4979225662452264  0.5107992575032392  0.3953067052836738
  0.2516392174223737  0.0107196147127964  0.3952711547800479
  0.7516524601674047  0.0107268887129262  0.3952710214875027
  0.1923466460576850  0.9748763944300161  0.6626823798727723
 -0.0000163643189212  0.4999002356983298  0.6004357588969332
  0.4999848877231681  0.4999179316775010  0.6004357686553052
  0.9952966076925747  0.4999106170777883  0.5531768887697188
  0.5046950868174179  0.5000266017675931  0.5531765922659833
  0.1309670363378574  0.7876090742810293  0.6224170955408050
  0.6309930211051279  0.7876622097383040  0.6228992995448387
  0.3811260065035815  0.7124499370030343  0.6229024648938408
  0.8810696977983318  0.7125156440794723  0.6229056811374365
  0.3690582816255919  0.2124847881906824  0.6224143461943732
  0.8690764586499776  0.2082657407352795  0.6227560562293766
  0.1188161932408154  0.2876220053751742  0.6229018939077670
  0.6189204160383260  0.2875075634952176  0.6229031857891449
  0.2499693375989150 -0.0000319382587584  0.5542748605291015
  0.7499594872671064 -0.0000106959511698  0.5542867702957923
  0.2452513244672823 -0.0000188549416571  0.6000187919617413
  0.7499897417360595 -0.0000169489719887  0.5995665839753630
  0.3771641611957776  0.2802185130809850  0.5780035725801878
  0.8771729000683446  0.2801936491372499  0.5780018598926553
  0.1262525659214283  0.2248577083051339  0.5781154020886589
  0.6262587831931576  0.2248200343053617  0.5781162516318450
  0.1228096005427996  0.7199473356141094  0.5779774018725945
  0.6228118012610397  0.7199560385194645  0.5779950490705923
  0.3737244630432762  0.7752413915555284  0.5781195957839421
  0.8737317123154207  0.7752012116729128  0.5781176863033524
  0.9953012923422159  0.4999692653665662  0.5078622089762487
  0.4953043026401726  0.4999696212276278  0.5078632552085507
 -0.0000113253063201  0.4999384496260487  0.4644884056817304
  0.4999891948680919  0.4999367711926102  0.4644881831401839
  0.1380028284048910  0.7747957676303037  0.5327989335486868
  0.6380269788043008  0.7748164297996084  0.5327952804384063
  0.3880479761991095  0.7248840380063294  0.5327907574420904
  0.8880406288923101  0.7249441721193607  0.5327871160386338
  0.3619211584833574  0.2250043322792321  0.5327940113016385
  0.8619024954658971  0.2249564111201768  0.5327912535709484
  0.1119528780915913  0.2748975904749834  0.5327902576805231
  0.6119607325986577  0.2748549411261660  0.5327858050811463
  0.2499927383621089  0.9875321716669285  0.4635241528768533
  0.7499869154584994  0.9875360290061161  0.4635237842725618
  0.2499852586020353  0.9875829186858289  0.5088448549507978
  0.7499855810840822  0.9875825164898829  0.5088459500043173
  0.3927891656001462  0.2624661895965504  0.4869548760062185
  0.8927903267630919  0.2624672180335553  0.4869549461779816
  0.1428562944697090  0.2373925355265653  0.4864749688769381
  0.6428523254567713  0.2373921729728883  0.4864748234092218
  0.1072060087852807  0.7375574823844144  0.4869570586170373
  0.6072037394091949  0.7375534906208815  0.4869570846470354
  0.3571745326018310  0.7625121169021695  0.4864748903308007
  0.8571747835831250  0.7625085381485724  0.4864750433627981
 -0.0000010327876602  0.4999932276002492  0.4191243095178275
  0.4999922058512741  0.5000051120319662  0.4191218703682787
  0.1379800584967244  0.7748597024757822  0.4406221781541677
  0.6379812664346609  0.7748578368549474  0.4406219798461555
  0.3857777027753465  0.7249041574877035  0.4406313285170306
  0.8857859052882973  0.7249060635014745  0.4406310940549215
  0.3619416059144962  0.2249335342982518  0.4406260329861816
  0.8619411769233211  0.2249246399850484  0.4406261317805608
  0.1142461190421304  0.2748855509564556  0.4406341154743563
  0.6142461505737029  0.2748897171586291  0.4406340738022963
  0.2499786786208238 -0.0000401468007790  0.4167691946899684
  0.7499787970065217 -0.0000411476585866  0.4167694400199685
  0.3881708830953116  0.2751241456841158  0.3937622777567995
  0.8881711002715545  0.2751251448143857  0.3937622619363770
  0.1380612284135414  0.2248315295507002  0.3937515806806171
  0.6380669256865222  0.2248359373775186  0.3937522767052065
  0.1118229383337824  0.7249630334126846  0.3937603572041350
  0.6118229964636951  0.7249631466697202  0.3937603209282781
  0.3619153672931041  0.7752340656570642  0.3937540520450005
  0.8619152756215646  0.7752333554238705  0.3937540597805432
  0.2665309034083695  0.0247254911935487  0.6437928809534007
  0.1667360822698975  0.9375544829997627  0.6521025471727583
 
  0.00000000E+00  0.00000000E+00  0.00000000E+00
  0.00000000E+00  0.00000000E+00  0.00000000E+00
  0.00000000E+00  0.00000000E+00  0.00000000E+00
  0.00000000E+00  0.00000000E+00  0.00000000E+00
  0.00000000E+00  0.00000000E+00  0.00000000E+00
  0.00000000E+00  0.00000000E+00  0.00000000E+00
  0.00000000E+00  0.00000000E+00  0.00000000E+00
  0.00000000E+00  0.00000000E+00  0.00000000E+00
  0.00000000E+00  0.00000000E+00  0.00000000E+00
  0.00000000E+00  0.00000000E+00  0.00000000E+00
  0.00000000E+00  0.00000000E+00  0.00000000E+00
  0.00000000E+00  0.00000000E+00  0.00000000E+00
  0.00000000E+00  0.00000000E+00  0.00000000E+00
  0.00000000E+00  0.00000000E+00  0.00000000E+00
  0.00000000E+00  0.00000000E+00  0.00000000E+00
  0.00000000E+00  0.00000000E+00  0.00000000E+00
  0.00000000E+00  0.00000000E+00  0.00000000E+00
  0.00000000E+00  0.00000000E+00  0.00000000E+00
  0.00000000E+00  0.00000000E+00  0.00000000E+00
  0.00000000E+00  0.00000000E+00  0.00000000E+00
  0.00000000E+00  0.00000000E+00  0.00000000E+00
  0.00000000E+00  0.00000000E+00  0.00000000E+00
  0.00000000E+00  0.00000000E+00  0.00000000E+00
  0.00000000E+00  0.00000000E+00  0.00000000E+00
  0.00000000E+00  0.00000000E+00  0.00000000E+00
  0.00000000E+00  0.00000000E+00  0.00000000E+00
  0.00000000E+00  0.00000000E+00  0.00000000E+00
  0.00000000E+00  0.00000000E+00  0.00000000E+00
  0.00000000E+00  0.00000000E+00  0.00000000E+00
  0.00000000E+00  0.00000000E+00  0.00000000E+00
  0.00000000E+00  0.00000000E+00  0.00000000E+00
  0.00000000E+00  0.00000000E+00  0.00000000E+00
  0.00000000E+00  0.00000000E+00  0.00000000E+00
  0.00000000E+00  0.00000000E+00  0.00000000E+00
  0.00000000E+00  0.00000000E+00  0.00000000E+00
  0.00000000E+00  0.00000000E+00  0.00000000E+00
  0.00000000E+00  0.00000000E+00  0.00000000E+00
  0.00000000E+00  0.00000000E+00  0.00000000E+00
  0.00000000E+00  0.00000000E+00  0.00000000E+00
  0.00000000E+00  0.00000000E+00  0.00000000E+00
  0.00000000E+00  0.00000000E+00  0.00000000E+00
  0.00000000E+00  0.00000000E+00  0.00000000E+00
  0.00000000E+00  0.00000000E+00  0.00000000E+00
  0.00000000E+00  0.00000000E+00  0.00000000E+00
  0.00000000E+00  0.00000000E+00  0.00000000E+00
  0.00000000E+00  0.00000000E+00  0.00000000E+00
  0.00000000E+00  0.00000000E+00  0.00000000E+00
  0.00000000E+00  0.00000000E+00  0.00000000E+00
  0.00000000E+00  0.00000000E+00  0.00000000E+00
  0.00000000E+00  0.00000000E+00  0.00000000E+00
  0.00000000E+00  0.00000000E+00  0.00000000E+00
  0.00000000E+00  0.00000000E+00  0.00000000E+00
  0.00000000E+00  0.00000000E+00  0.00000000E+00
  0.00000000E+00  0.00000000E+00  0.00000000E+00
  0.00000000E+00  0.00000000E+00  0.00000000E+00
  0.00000000E+00  0.00000000E+00  0.00000000E+00
  0.00000000E+00  0.00000000E+00  0.00000000E+00
  0.00000000E+00  0.00000000E+00  0.00000000E+00
  0.00000000E+00  0.00000000E+00  0.00000000E+00
  0.00000000E+00  0.00000000E+00  0.00000000E+00
  0.00000000E+00  0.00000000E+00  0.00000000E+00
  0.00000000E+00  0.00000000E+00  0.00000000E+00
  0.00000000E+00  0.00000000E+00  0.00000000E+00
  0.00000000E+00  0.00000000E+00  0.00000000E+00
  0.00000000E+00  0.00000000E+00  0.00000000E+00
  0.00000000E+00  0.00000000E+00  0.00000000E+00
  0.00000000E+00  0.00000000E+00  0.00000000E+00
  0.00000000E+00  0.00000000E+00  0.00000000E+00
  0.00000000E+00  0.00000000E+00  0.00000000E+00
  0.00000000E+00  0.00000000E+00  0.00000000E+00
  0.00000000E+00  0.00000000E+00  0.00000000E+00
  0.00000000E+00  0.00000000E+00  0.00000000E+00
  0.00000000E+00  0.00000000E+00  0.00000000E+00
  0.00000000E+00  0.00000000E+00  0.00000000E+00
  0.00000000E+00  0.00000000E+00  0.00000000E+00
  0.00000000E+00  0.00000000E+00  0.00000000E+00
  0.00000000E+00  0.00000000E+00  0.00000000E+00
  0.00000000E+00  0.00000000E+00  0.00000000E+00
  0.00000000E+00  0.00000000E+00  0.00000000E+00
  0.00000000E+00  0.00000000E+00  0.00000000E+00
  0.00000000E+00  0.00000000E+00  0.00000000E+00
  0.00000000E+00  0.00000000E+00  0.00000000E+00
  0.00000000E+00  0.00000000E+00  0.00000000E+00
  0.00000000E+00  0.00000000E+00  0.00000000E+00
  0.00000000E+00  0.00000000E+00  0.00000000E+00
  0.00000000E+00  0.00000000E+00  0.00000000E+00
  0.00000000E+00  0.00000000E+00  0.00000000E+00
  0.00000000E+00  0.00000000E+00  0.00000000E+00
  0.00000000E+00  0.00000000E+00  0.00000000E+00
  0.00000000E+00  0.00000000E+00  0.00000000E+00
  0.00000000E+00  0.00000000E+00  0.00000000E+00
  0.00000000E+00  0.00000000E+00  0.00000000E+00
  0.00000000E+00  0.00000000E+00  0.00000000E+00
  0.00000000E+00  0.00000000E+00  0.00000000E+00
  0.00000000E+00  0.00000000E+00  0.00000000E+00
  0.00000000E+00  0.00000000E+00  0.00000000E+00
  0.00000000E+00  0.00000000E+00  0.00000000E+00
  0.00000000E+00  0.00000000E+00  0.00000000E+00
  0.00000000E+00  0.00000000E+00  0.00000000E+00
  0.00000000E+00  0.00000000E+00  0.00000000E+00
  0.00000000E+00  0.00000000E+00  0.00000000E+00
  0.00000000E+00  0.00000000E+00  0.00000000E+00
  0.00000000E+00  0.00000000E+00  0.00000000E+00
  0.00000000E+00  0.00000000E+00  0.00000000E+00
  0.00000000E+00  0.00000000E+00  0.00000000E+00
  0.00000000E+00  0.00000000E+00  0.00000000E+00
  0.00000000E+00  0.00000000E+00  0.00000000E+00
  0.00000000E+00  0.00000000E+00  0.00000000E+00
  0.00000000E+00  0.00000000E+00  0.00000000E+00
  0.00000000E+00  0.00000000E+00  0.00000000E+00
  0.00000000E+00  0.00000000E+00  0.00000000E+00
  0.00000000E+00  0.00000000E+00  0.00000000E+00
  0.00000000E+00  0.00000000E+00  0.00000000E+00
  0.00000000E+00  0.00000000E+00  0.00000000E+00
  0.00000000E+00  0.00000000E+00  0.00000000E+00
