Ti13 Cr15 H8 Ru28 O120
   1.00000000000000
     9.2472519999999996    0.0000000000000000   -0.0806520000000000
     0.1338030000000000   10.9646120000000007   -0.9457270000000000
     0.0000000000000000    0.0000000000000000   60.4362160000000017
   Ti   Cr   H    Ru   O
    13    15     8    28   120
Direct
  0.2389020000000031  0.0020200000000017  0.3950940000000003
  0.7418880000000030  0.0008160000000004  0.3957759999999979
  0.2674519999999987  0.3323380000000000  0.3556060000000016
  0.7426079999999970  0.5044589999999971  0.3962930000000000
  0.2496870000000015  0.3329280000000026  0.4790330000000012
  0.7531589999999966  0.3329499999999967  0.4783809999999988
  0.2448669999999993  0.6685360000000031  0.4375550000000032
  0.7471419999999966  0.8316620000000015  0.4787620000000032
  0.2606960000000029  0.6694000000000031  0.5640479999999997
  0.7568529999999996  0.6708300000000023  0.5628650000000022
  0.2502380000000031  0.0055720000000008  0.5208599999999990
  0.7568470000000005  0.1678039999999967  0.5627220000000008
  0.2438840000000013  0.3369250000000008  0.6038789999999992
  0.2617800000000017  0.8289100000000005  0.3549349999999976
  0.7595719999999986  0.8276079999999979  0.3553139999999999
  0.2488620000000026  0.5045819999999992  0.3954510000000013
  0.7586230000000000  0.3295710000000014  0.3557830000000024
  0.2509700000000024  0.1678640000000016  0.4369110000000020
  0.7499570000000020  0.1680640000000011  0.4373810000000020
  0.2502210000000034  0.8334639999999993  0.4791650000000018
  0.7478619999999978  0.6677899999999966  0.4375509999999991
  0.2514400000000023  0.5009579999999971  0.5212530000000015
  0.7466780000000028  0.5002059999999986  0.5212379999999968
  0.2563499999999976  0.1648509999999987  0.5632829999999984
  0.7487179999999967  0.9969690000000000  0.5208680000000001
  0.2439019999999985  0.8365039999999979  0.6046520000000015
  0.7487720000000024  0.8373009999999965  0.6046040000000019
  0.7459300000000013  0.3355680000000021  0.6047450000000012
  0.3427269999999965  0.2726430000000022  0.6336950000000030
  0.3410349999999980  0.7770450000000011  0.6355879999999985
  0.8458070000000006  0.7758579999999995  0.6355029999999999
  0.8444420000000008  0.2734510000000014  0.6357819999999990
  0.4274109999999993  0.0370780000000011  0.6371549999999999
  0.9200799999999987  0.5294060000000016  0.6354430000000022
  0.9207030000000032  0.0282940000000025  0.6354029999999966
  0.4285700000000006  0.5359910000000028  0.6369770000000017
  0.5049560000000000  0.2487679999999983  0.3948930000000033
  0.4781949999999995  0.0770709999999966  0.3542500000000004
  0.9821689999999990  0.5784949999999967  0.3534310000000005
  0.0013640000000024  0.7495440000000002  0.3957699999999988
  0.4993369999999970  0.5815750000000008  0.4787499999999980
  0.4967169999999967  0.4228760000000023  0.4377640000000014
  0.9981999999999971  0.9132660000000001  0.4372309999999970
  0.9979889999999969  0.0834499999999991  0.4797829999999976
  0.4975969999999990  0.9131879999999981  0.5625849999999986
  0.5014899999999969  0.7538550000000015  0.5209809999999990
  0.9976929999999982  0.2490590000000026  0.5202680000000015
  0.9985270000000028  0.4192680000000024  0.5634319999999988
  0.5232680000000016  0.0953289999999996  0.6061880000000031
  0.0197160000000025  0.5882379999999969  0.6049170000000004
  0.0039170000000013  0.2536770000000033  0.3953810000000004
  0.9790459999999968  0.0746639999999985  0.3528609999999972
  0.4815630000000013  0.5816579999999973  0.3544150000000030
  0.4995850000000033  0.7531010000000009  0.3958349999999982
  0.0023300000000006  0.5871690000000029  0.4797960000000003
  0.0002589999999998  0.4152679999999975  0.4371149999999986
  0.4939820000000026  0.9232209999999981  0.4385770000000022
  0.5003320000000002  0.0794840000000008  0.4779059999999973
  0.9990489999999994  0.9174650000000000  0.5640379999999965
  0.0040589999999980  0.7479599999999991  0.5201380000000029
  0.4999150000000014  0.2503189999999975  0.5210539999999995
  0.4962110000000024  0.4136510000000015  0.5631229999999974
  0.0181499999999986  0.0898690000000002  0.6049209999999974
  0.5274649999999994  0.5933970000000031  0.6063860000000005
  0.0953769999999992  0.7364299999999986  0.3659510000000026
  0.1036890000000028  0.8997730000000033  0.4087109999999967
  0.6027690000000021  0.7229379999999992  0.3676600000000008
  0.5957859999999968  0.9001260000000002  0.4103670000000008
  0.1045409999999976  0.3978839999999977  0.4076549999999983
  0.0939970000000017  0.2355779999999967  0.3661170000000027
  0.5906230000000008  0.3983459999999965  0.4084760000000003
  0.5947859999999991  0.2262660000000025  0.3648859999999985
  0.4056690000000032  0.9364289999999968  0.3414319999999975
  0.4029880000000006  0.0975650000000030  0.3833040000000025
  0.9090920000000011  0.9268539999999987  0.3415650000000028
  0.9070520000000002  0.1057559999999995  0.3827149999999975
  0.4050039999999981  0.6113989999999987  0.3840050000000019
  0.3956999999999979  0.4392330000000015  0.3415779999999984
  0.9077339999999978  0.6003260000000026  0.3827360000000013
  0.9050110000000018  0.4357029999999966  0.3437490000000025
  0.3629960000000025  0.6853029999999976  0.3416009999999972
  0.3524430000000009  0.8513579999999976  0.3839079999999981
  0.8564280000000011  0.6809739999999991  0.3401130000000023
  0.8473240000000004  0.8486300000000000  0.3839469999999992
  0.3540890000000019  0.3520710000000022  0.3823579999999964
  0.3474500000000020  0.1880689999999987  0.3416750000000022
  0.8511110000000031  0.3519810000000021  0.3838790000000003
  0.8578979999999987  0.1813629999999975  0.3407359999999997
  0.1483800000000031  0.1476830000000007  0.4084149999999980
  0.1574460000000002  0.9818399999999983  0.3652859999999976
  0.6485720000000015  0.1489010000000022  0.4083839999999981
  0.6455860000000015  0.9849260000000015  0.3675819999999987
  0.1498750000000015  0.4768430000000023  0.3660119999999978
  0.1504499999999993  0.6499969999999990  0.4093840000000029
  0.6469530000000034  0.4857680000000002  0.3681359999999998
  0.6436279999999996  0.6443700000000021  0.4078280000000021
  0.0907849999999968  0.0606960000000001  0.4507740000000027
  0.0977960000000024  0.2299340000000001  0.4920010000000019
  0.6005919999999989  0.0687479999999994  0.4500770000000003
  0.6003680000000031  0.2189109999999985  0.4917629999999988
  0.1045640000000034  0.7353299999999976  0.4910640000000015
  0.0882369999999995  0.5614210000000028  0.4511070000000004
  0.5906769999999995  0.7354899999999986  0.4910670000000010
  0.6006760000000000  0.5688850000000016  0.4500969999999995
  0.4130309999999966  0.2778619999999989  0.4231120000000033
  0.3992879999999985  0.4308669999999992  0.4673429999999996
  0.9013440000000017  0.2694210000000012  0.4245990000000006
  0.9069620000000000  0.4369829999999979  0.4663449999999969
  0.3910040000000023  0.9357589999999973  0.4664769999999976
  0.3958470000000034  0.7766000000000020  0.4249099999999970
  0.9078739999999996  0.9377589999999998  0.4653050000000007
  0.8969120000000004  0.7645369999999971  0.4248750000000001
  0.3497699999999995  0.0160359999999997  0.4241060000000019
  0.3542980000000000  0.1897650000000013  0.4650460000000010
  0.8481669999999966  0.0114299999999972  0.4239219999999975
  0.8495950000000008  0.1854000000000013  0.4664599999999979
  0.3459920000000025  0.6778860000000009  0.4649550000000033
  0.3441749999999999  0.5216550000000026  0.4251799999999974
  0.8474939999999975  0.6860410000000030  0.4665749999999989
  0.8474289999999982  0.5127799999999993  0.4241609999999980
  0.1546170000000018  0.4893730000000005  0.4917670000000030
  0.1513980000000004  0.3184609999999992  0.4500359999999972
  0.6505549999999971  0.4832609999999988  0.4910870000000003
  0.6478079999999977  0.3231899999999968  0.4509060000000034
  0.1501980000000032  0.8121500000000026  0.4496889999999993
  0.1521899999999974  0.9860850000000028  0.4930209999999988
  0.6476079999999982  0.8231380000000001  0.4508470000000031
  0.6517740000000032  0.9769080000000017  0.4910860000000028
  0.0904859999999985  0.3985580000000013  0.5334969999999970
  0.1052340000000029  0.5695290000000028  0.5741569999999996
  0.5927969999999974  0.3998089999999976  0.5332909999999984
  0.5970159999999964  0.5613999999999990  0.5751700000000000
  0.1092399999999998  0.0634810000000030  0.5746460000000013
  0.0852580000000032  0.8939080000000033  0.5340909999999965
  0.5931909999999974  0.0603529999999992  0.5751470000000012
  0.6038870000000003  0.9003700000000023  0.5336410000000029
  0.4095530000000025  0.6015069999999980  0.5088670000000022
  0.4047079999999994  0.7633349999999979  0.5493120000000005
  0.8995099999999994  0.6034509999999997  0.5078839999999971
  0.9069179999999974  0.7721319999999992  0.5494290000000035
  0.3990769999999983  0.2683419999999970  0.5508009999999999
  0.4042820000000020  0.1000149999999991  0.5069250000000025
  0.9049059999999969  0.2737169999999978  0.5490970000000033
  0.9014170000000021  0.0945430000000016  0.5080299999999980
  0.3486600000000024  0.3480279999999993  0.5068320000000028
  0.3481030000000018  0.5226609999999994  0.5511520000000019
  0.8510070000000027  0.3508410000000026  0.5068130000000011
  0.8414860000000033  0.5178349999999980  0.5519609999999986
  0.3423590000000019  0.0055449999999979  0.5497859999999974
  0.3498260000000002  0.8512010000000032  0.5084909999999994
  0.8378579999999971  0.0135069999999970  0.5512099999999975
  0.8519549999999967  0.8505699999999976  0.5068669999999997
  0.1479149999999976  0.8121319999999983  0.5737280000000027
  0.1605419999999995  0.6510469999999984  0.5333449999999971
  0.6479149999999976  0.8124660000000006  0.5742219999999989
  0.6513259999999974  0.6499219999999966  0.5351390000000009
  0.1520730000000015  0.1490739999999988  0.5331890000000001
  0.1425330000000002  0.3127319999999969  0.5734270000000024
  0.6496589999999998  0.1493740000000017  0.5337740000000011
  0.6472520000000017  0.3127100000000027  0.5748260000000016
  0.0984290000000030  0.7267909999999986  0.6153869999999984
  0.6152650000000008  0.7306349999999995  0.6157260000000022
  0.0888580000000019  0.2306099999999986  0.6139140000000012
  0.6045480000000012  0.2313770000000019  0.6162750000000017
  0.4069089999999989  0.9364320000000035  0.5908090000000001
  0.9080790000000007  0.9279250000000019  0.5924219999999991
  0.4086959999999991  0.4388050000000021  0.5917249999999967
  0.9011119999999977  0.4323199999999972  0.5913779999999988
  0.3468629999999990  0.6863740000000007  0.5927209999999974
  0.8569370000000021  0.6808959999999971  0.5899679999999989
  0.3502190000000027  0.1809459999999987  0.5925170000000008
  0.8486369999999965  0.1782690000000002  0.5906349999999989
  0.1331739999999968  0.9782050000000027  0.6152200000000008
  0.6446010000000015  0.9849299999999985  0.6168779999999998
  0.1382199999999969  0.4829980000000020  0.6152950000000033
  0.6483640000000008  0.4876539999999991  0.6166020000000003
  0.3383510000000030  0.3445660000000004  0.6310640000000021
  0.3395039999999980  0.8425140000000013  0.6315999999999988
  0.8407860000000014  0.8399229999999989  0.6312920000000020
  0.8584749999999985  0.3480429999999970  0.6318809999999999
  0.4243110000000030  0.1019379999999970  0.6337609999999998
  0.9086929999999995  0.5969970000000018  0.6314550000000025
  0.9081800000000015  0.0987239999999971  0.6320150000000027
  0.4318740000000005  0.5950059999999979  0.6334220000000030

  0.00000000E+00  0.00000000E+00  0.00000000E+00
  0.00000000E+00  0.00000000E+00  0.00000000E+00
  0.00000000E+00  0.00000000E+00  0.00000000E+00
  0.00000000E+00  0.00000000E+00  0.00000000E+00
  0.00000000E+00  0.00000000E+00  0.00000000E+00
  0.00000000E+00  0.00000000E+00  0.00000000E+00
  0.00000000E+00  0.00000000E+00  0.00000000E+00
  0.00000000E+00  0.00000000E+00  0.00000000E+00
  0.00000000E+00  0.00000000E+00  0.00000000E+00
  0.00000000E+00  0.00000000E+00  0.00000000E+00
  0.00000000E+00  0.00000000E+00  0.00000000E+00
  0.00000000E+00  0.00000000E+00  0.00000000E+00
  0.00000000E+00  0.00000000E+00  0.00000000E+00
  0.00000000E+00  0.00000000E+00  0.00000000E+00
  0.00000000E+00  0.00000000E+00  0.00000000E+00
  0.00000000E+00  0.00000000E+00  0.00000000E+00
  0.00000000E+00  0.00000000E+00  0.00000000E+00
  0.00000000E+00  0.00000000E+00  0.00000000E+00
  0.00000000E+00  0.00000000E+00  0.00000000E+00
  0.00000000E+00  0.00000000E+00  0.00000000E+00
  0.00000000E+00  0.00000000E+00  0.00000000E+00
  0.00000000E+00  0.00000000E+00  0.00000000E+00
  0.00000000E+00  0.00000000E+00  0.00000000E+00
  0.00000000E+00  0.00000000E+00  0.00000000E+00
  0.00000000E+00  0.00000000E+00  0.00000000E+00
  0.00000000E+00  0.00000000E+00  0.00000000E+00
  0.00000000E+00  0.00000000E+00  0.00000000E+00
  0.00000000E+00  0.00000000E+00  0.00000000E+00
  0.00000000E+00  0.00000000E+00  0.00000000E+00
  0.00000000E+00  0.00000000E+00  0.00000000E+00
  0.00000000E+00  0.00000000E+00  0.00000000E+00
  0.00000000E+00  0.00000000E+00  0.00000000E+00
  0.00000000E+00  0.00000000E+00  0.00000000E+00
  0.00000000E+00  0.00000000E+00  0.00000000E+00
  0.00000000E+00  0.00000000E+00  0.00000000E+00
  0.00000000E+00  0.00000000E+00  0.00000000E+00
  0.00000000E+00  0.00000000E+00  0.00000000E+00
  0.00000000E+00  0.00000000E+00  0.00000000E+00
  0.00000000E+00  0.00000000E+00  0.00000000E+00
  0.00000000E+00  0.00000000E+00  0.00000000E+00
  0.00000000E+00  0.00000000E+00  0.00000000E+00
  0.00000000E+00  0.00000000E+00  0.00000000E+00
  0.00000000E+00  0.00000000E+00  0.00000000E+00
  0.00000000E+00  0.00000000E+00  0.00000000E+00
  0.00000000E+00  0.00000000E+00  0.00000000E+00
  0.00000000E+00  0.00000000E+00  0.00000000E+00
  0.00000000E+00  0.00000000E+00  0.00000000E+00
  0.00000000E+00  0.00000000E+00  0.00000000E+00
  0.00000000E+00  0.00000000E+00  0.00000000E+00
  0.00000000E+00  0.00000000E+00  0.00000000E+00
  0.00000000E+00  0.00000000E+00  0.00000000E+00
  0.00000000E+00  0.00000000E+00  0.00000000E+00
  0.00000000E+00  0.00000000E+00  0.00000000E+00
  0.00000000E+00  0.00000000E+00  0.00000000E+00
  0.00000000E+00  0.00000000E+00  0.00000000E+00
  0.00000000E+00  0.00000000E+00  0.00000000E+00
  0.00000000E+00  0.00000000E+00  0.00000000E+00
  0.00000000E+00  0.00000000E+00  0.00000000E+00
  0.00000000E+00  0.00000000E+00  0.00000000E+00
  0.00000000E+00  0.00000000E+00  0.00000000E+00
  0.00000000E+00  0.00000000E+00  0.00000000E+00
  0.00000000E+00  0.00000000E+00  0.00000000E+00
  0.00000000E+00  0.00000000E+00  0.00000000E+00
  0.00000000E+00  0.00000000E+00  0.00000000E+00
  0.00000000E+00  0.00000000E+00  0.00000000E+00
  0.00000000E+00  0.00000000E+00  0.00000000E+00
  0.00000000E+00  0.00000000E+00  0.00000000E+00
  0.00000000E+00  0.00000000E+00  0.00000000E+00
  0.00000000E+00  0.00000000E+00  0.00000000E+00
  0.00000000E+00  0.00000000E+00  0.00000000E+00
  0.00000000E+00  0.00000000E+00  0.00000000E+00
  0.00000000E+00  0.00000000E+00  0.00000000E+00
  0.00000000E+00  0.00000000E+00  0.00000000E+00
  0.00000000E+00  0.00000000E+00  0.00000000E+00
  0.00000000E+00  0.00000000E+00  0.00000000E+00
  0.00000000E+00  0.00000000E+00  0.00000000E+00
  0.00000000E+00  0.00000000E+00  0.00000000E+00
  0.00000000E+00  0.00000000E+00  0.00000000E+00
  0.00000000E+00  0.00000000E+00  0.00000000E+00
  0.00000000E+00  0.00000000E+00  0.00000000E+00
  0.00000000E+00  0.00000000E+00  0.00000000E+00
  0.00000000E+00  0.00000000E+00  0.00000000E+00
  0.00000000E+00  0.00000000E+00  0.00000000E+00
  0.00000000E+00  0.00000000E+00  0.00000000E+00
  0.00000000E+00  0.00000000E+00  0.00000000E+00
  0.00000000E+00  0.00000000E+00  0.00000000E+00
  0.00000000E+00  0.00000000E+00  0.00000000E+00
  0.00000000E+00  0.00000000E+00  0.00000000E+00
  0.00000000E+00  0.00000000E+00  0.00000000E+00
  0.00000000E+00  0.00000000E+00  0.00000000E+00
  0.00000000E+00  0.00000000E+00  0.00000000E+00
  0.00000000E+00  0.00000000E+00  0.00000000E+00
  0.00000000E+00  0.00000000E+00  0.00000000E+00
  0.00000000E+00  0.00000000E+00  0.00000000E+00
  0.00000000E+00  0.00000000E+00  0.00000000E+00
  0.00000000E+00  0.00000000E+00  0.00000000E+00
  0.00000000E+00  0.00000000E+00  0.00000000E+00
  0.00000000E+00  0.00000000E+00  0.00000000E+00
  0.00000000E+00  0.00000000E+00  0.00000000E+00
  0.00000000E+00  0.00000000E+00  0.00000000E+00
  0.00000000E+00  0.00000000E+00  0.00000000E+00
  0.00000000E+00  0.00000000E+00  0.00000000E+00
  0.00000000E+00  0.00000000E+00  0.00000000E+00
  0.00000000E+00  0.00000000E+00  0.00000000E+00
  0.00000000E+00  0.00000000E+00  0.00000000E+00
  0.00000000E+00  0.00000000E+00  0.00000000E+00
  0.00000000E+00  0.00000000E+00  0.00000000E+00
  0.00000000E+00  0.00000000E+00  0.00000000E+00
  0.00000000E+00  0.00000000E+00  0.00000000E+00
  0.00000000E+00  0.00000000E+00  0.00000000E+00
  0.00000000E+00  0.00000000E+00  0.00000000E+00
  0.00000000E+00  0.00000000E+00  0.00000000E+00
  0.00000000E+00  0.00000000E+00  0.00000000E+00
  0.00000000E+00  0.00000000E+00  0.00000000E+00
  0.00000000E+00  0.00000000E+00  0.00000000E+00
  0.00000000E+00  0.00000000E+00  0.00000000E+00
  0.00000000E+00  0.00000000E+00  0.00000000E+00
  0.00000000E+00  0.00000000E+00  0.00000000E+00
  0.00000000E+00  0.00000000E+00  0.00000000E+00
  0.00000000E+00  0.00000000E+00  0.00000000E+00
  0.00000000E+00  0.00000000E+00  0.00000000E+00
  0.00000000E+00  0.00000000E+00  0.00000000E+00
  0.00000000E+00  0.00000000E+00  0.00000000E+00
  0.00000000E+00  0.00000000E+00  0.00000000E+00
  0.00000000E+00  0.00000000E+00  0.00000000E+00
  0.00000000E+00  0.00000000E+00  0.00000000E+00
  0.00000000E+00  0.00000000E+00  0.00000000E+00
  0.00000000E+00  0.00000000E+00  0.00000000E+00
  0.00000000E+00  0.00000000E+00  0.00000000E+00
  0.00000000E+00  0.00000000E+00  0.00000000E+00
  0.00000000E+00  0.00000000E+00  0.00000000E+00
  0.00000000E+00  0.00000000E+00  0.00000000E+00
  0.00000000E+00  0.00000000E+00  0.00000000E+00
  0.00000000E+00  0.00000000E+00  0.00000000E+00
  0.00000000E+00  0.00000000E+00  0.00000000E+00
  0.00000000E+00  0.00000000E+00  0.00000000E+00
  0.00000000E+00  0.00000000E+00  0.00000000E+00
  0.00000000E+00  0.00000000E+00  0.00000000E+00
  0.00000000E+00  0.00000000E+00  0.00000000E+00
  0.00000000E+00  0.00000000E+00  0.00000000E+00
  0.00000000E+00  0.00000000E+00  0.00000000E+00
  0.00000000E+00  0.00000000E+00  0.00000000E+00
  0.00000000E+00  0.00000000E+00  0.00000000E+00
  0.00000000E+00  0.00000000E+00  0.00000000E+00
  0.00000000E+00  0.00000000E+00  0.00000000E+00
  0.00000000E+00  0.00000000E+00  0.00000000E+00
  0.00000000E+00  0.00000000E+00  0.00000000E+00
  0.00000000E+00  0.00000000E+00  0.00000000E+00
  0.00000000E+00  0.00000000E+00  0.00000000E+00
  0.00000000E+00  0.00000000E+00  0.00000000E+00
  0.00000000E+00  0.00000000E+00  0.00000000E+00
  0.00000000E+00  0.00000000E+00  0.00000000E+00
  0.00000000E+00  0.00000000E+00  0.00000000E+00
  0.00000000E+00  0.00000000E+00  0.00000000E+00
  0.00000000E+00  0.00000000E+00  0.00000000E+00
  0.00000000E+00  0.00000000E+00  0.00000000E+00
  0.00000000E+00  0.00000000E+00  0.00000000E+00
  0.00000000E+00  0.00000000E+00  0.00000000E+00
  0.00000000E+00  0.00000000E+00  0.00000000E+00
  0.00000000E+00  0.00000000E+00  0.00000000E+00
  0.00000000E+00  0.00000000E+00  0.00000000E+00
  0.00000000E+00  0.00000000E+00  0.00000000E+00
  0.00000000E+00  0.00000000E+00  0.00000000E+00
  0.00000000E+00  0.00000000E+00  0.00000000E+00
  0.00000000E+00  0.00000000E+00  0.00000000E+00
  0.00000000E+00  0.00000000E+00  0.00000000E+00
  0.00000000E+00  0.00000000E+00  0.00000000E+00
  0.00000000E+00  0.00000000E+00  0.00000000E+00
  0.00000000E+00  0.00000000E+00  0.00000000E+00
  0.00000000E+00  0.00000000E+00  0.00000000E+00
  0.00000000E+00  0.00000000E+00  0.00000000E+00
  0.00000000E+00  0.00000000E+00  0.00000000E+00
  0.00000000E+00  0.00000000E+00  0.00000000E+00
  0.00000000E+00  0.00000000E+00  0.00000000E+00
  0.00000000E+00  0.00000000E+00  0.00000000E+00
  0.00000000E+00  0.00000000E+00  0.00000000E+00
  0.00000000E+00  0.00000000E+00  0.00000000E+00
  0.00000000E+00  0.00000000E+00  0.00000000E+00
  0.00000000E+00  0.00000000E+00  0.00000000E+00
  0.00000000E+00  0.00000000E+00  0.00000000E+00
  0.00000000E+00  0.00000000E+00  0.00000000E+00
  0.00000000E+00  0.00000000E+00  0.00000000E+00
  0.00000000E+00  0.00000000E+00  0.00000000E+00
  0.00000000E+00  0.00000000E+00  0.00000000E+00
