H4 Ir32 O68                             
   1.00000000000000     
     6.3790139999999997    0.0000000000000000    0.0000000000000000
     0.0000000000000000   12.8550290000000000    0.0000000000000000
     0.0000000000000000    0.0000000000000000   38.5650860000000009
   H    Ir   O 
     4    32    68
Direct
  0.0000000106779680  0.0495370764940990  0.6810933492681203
 -0.0000000042732417  0.5495372046119643  0.6810931703997529
  0.5000000038801559  0.0495371028648240  0.6810933499287170
  0.5000000131276608  0.5495372512060899  0.6810931695810160
  0.2500000012995394  0.1250737965318245  0.3734891113297610
  0.2500000015507951  0.6250737152505027  0.3734889474250047
  0.7499999991342864  0.1250737963962130  0.3734891113266965
  0.7499999987971282  0.6250737150944602  0.3734889474563688
  0.0000000027163425  0.3751842355425612  0.3755497385551645
  0.0000000026267599  0.8751847366004706  0.3755515307926380
  0.5000000025279352  0.3751842355221085  0.3755497378314689
  0.5000000024385598  0.8751847366062939  0.3755515294436668
  0.2500000022803643  0.3753381871016506  0.4578580724854010
  0.2500000030537222  0.8753365634716299  0.4578578993360439
  0.7500000027696703  0.3753381876644247  0.4578580725707362
  0.7500000020278768  0.8753365635608094  0.4578578995405915
  0.0000000034294549  0.1252245545036677  0.4578921523347617
  0.0000000026851631  0.6252250570948730  0.4578922164830789
  0.5000000015653648  0.1252245543645717  0.4578921527696290
  0.5000000019082812  0.6252250566646268  0.4578922170732306
  0.2500000061864292  0.1252019241783185  0.5411973462791999
  0.2500000135754670  0.6252016553704881  0.5411973748100717
  0.7499999955438705  0.1252019257605618  0.5411973450570318
  0.7499999884032150  0.6252016554679873  0.5411973738786968
  0.0000000024335483  0.3755360032517865  0.5414683638240290
  0.0000000037659028  0.8755358049005412  0.5414684771099160
  0.5000000064036809  0.3755360026456562  0.5414683641167113
  0.5000000040207805  0.8755358058518398  0.5414684775476553
  0.2500000041048605  0.3745249135829686  0.6257133641392071
  0.2500000025079873  0.8745251516352777  0.6257128241841413
  0.7499999887103911  0.3745249101379258  0.6257133684157842
  0.7499999981196148  0.8745251521527370  0.6257128245432314
  0.0000000029746826  0.1253658569979804  0.6246807250125564
 -0.0000000281332449  0.6253648308774208  0.6246808544874963
  0.5000000022047163  0.1253658674266724  0.6246807349070348
  0.4999999692236900  0.6253648517724868  0.6246808752077486
 -0.0000000027597096  0.1250097307845938  0.3423398485359634
  0.0000000029976817  0.6250097802489274  0.3423400857858667
  0.4999999960431687  0.1250097307924880  0.3423398484267469
  0.4999999901831168  0.6250097802046900  0.3423400856630871
  0.2499999979421578  0.2771471268685052  0.3749414420355124
  0.2499999978367311  0.7771467808301410  0.3749415525601069
  0.7499999979698417  0.2771471263084337  0.3749414420669718
  0.7499999980680165  0.7771467806688788  0.3749415525334569
 -0.0000000003077000  0.1250095062364338  0.4075622610423543
 -0.0000000000567921  0.6250095321676767  0.4075623986944757
  0.5000000006663283  0.1250095063130587  0.4075622602189631
  0.5000000003829560  0.6250095322562307  0.4075623985342446
  0.2499999975387034  0.4728853253077250  0.3749400696279614
  0.2499999979313647  0.9728849191524133  0.3749400879541584
  0.7499999975454570  0.4728853302061344  0.3749400700941857
  0.7499999971013716  0.9728849206108716  0.3749400880917710
 -0.0000000056765467  0.3750087154174442  0.4256881162223295
 -0.0000000013053117  0.8750086817242365  0.4256882059407856
  0.5000000003263446  0.3750087154699071  0.4256881166452701
  0.4999999959979543  0.8750086816696067  0.4256882073690540
  0.2499999991327771  0.0271704734990712  0.4583085556353649
  0.2499999992710715  0.5271709997925431  0.4583085693019897
  0.7499999975682758  0.0271704741637091  0.4583085550269527
  0.7499999973655136  0.5271709981795520  0.4583085695305795
  0.0000000010089572  0.3750122211042629  0.4909254090162780
 -0.0000000003079783  0.8750122458757059  0.4909254155319061
  0.4999999989226859  0.3750122210202254  0.4909254089236769
  0.5000000002540061  0.8750122463559004  0.4909254159112900
  0.2499999990407497  0.2228779410529972  0.4583081730753980
  0.2499999992098976  0.7228778872315108  0.4583081381455716
  0.7499999961585672  0.2228779375879579  0.4583081728777522
  0.7499999957235824  0.7228778879431789  0.4583081376154813
 -0.0000000191492394  0.1250107697946474  0.5090099539520421
 -0.0000000171365496  0.6250108990158451  0.5090098454239774
  0.5000000105578266  0.1250107688165385  0.5090099507472032
  0.5000000085579800  0.6250108987066126  0.5090098420779403
  0.2499999983846450  0.2771733248496767  0.5416429971570156
  0.2499999988040360  0.7771736040078016  0.5416429552597403
  0.7499999989946239  0.2771733222456039  0.5416429985104764
  0.7499999983746024  0.7771736017619119  0.5416429564408525
  0.0000000020258822  0.1250298667024174  0.5741949160267332
  0.0000000000824340  0.6250297635961319  0.5741949910137486
  0.5000000033469967  0.1250298688365523  0.5741949155675788
  0.5000000025324094  0.6250297668360202  0.5741949909391247
  0.2499999962869854  0.4728891226871383  0.5416422744928817
  0.2499999938169656  0.9728895145678071  0.5416422516845220
  0.7499999982556698  0.4728891086991894  0.5416422743435277
  0.7500000008948295  0.9728894989893137  0.5416422513875028
 -0.0000000060809285  0.3750082581578582  0.5923588781730615
 -0.0000000012178354  0.8750083125765967  0.5923581877412182
  0.4999999987793847  0.3750082582799657  0.5923588780596302
  0.4999999967023362  0.8750083128434083  0.5923581853345704
  0.2500000138020769  0.0271317862427606  0.6249560006853153
  0.2500000141060961  0.5271312586084627  0.6249559920244397
  0.7499999912771786  0.0271317868395459  0.6249560001834482
  0.7500000244557360  0.5271313846067398  0.6249560012266768
  0.0000000014998437  0.3750384980586779  0.6575958948642667
  0.0000000007374927  0.8750384088042187  0.6575958113697508
  0.4999999982963382  0.3750384975784945  0.6575958946166416
  0.5000000013530282  0.8750384081227973  0.6575958110124566
  0.2500000097296254  0.2228746863384107  0.6249683778366708
  0.2500000295020091  0.7228753723277720  0.6249683303984008
  0.7500000037313622  0.2228746769040060  0.6249683761086210
  0.7499999898366659  0.7228753455076391  0.6249683293158801
  0.0000000004383223  0.1209478482997893  0.6736577027900561
  0.0000000002965590  0.6209454622088550  0.6736587797166816
  0.5000000012188365  0.1209478679762726  0.6736577008276405
  0.5000000008631560  0.6209454934011950  0.6736587746018463
 
  0.00000000E+00  0.00000000E+00  0.00000000E+00
  0.00000000E+00  0.00000000E+00  0.00000000E+00
  0.00000000E+00  0.00000000E+00  0.00000000E+00
  0.00000000E+00  0.00000000E+00  0.00000000E+00
  0.00000000E+00  0.00000000E+00  0.00000000E+00
  0.00000000E+00  0.00000000E+00  0.00000000E+00
  0.00000000E+00  0.00000000E+00  0.00000000E+00
  0.00000000E+00  0.00000000E+00  0.00000000E+00
  0.00000000E+00  0.00000000E+00  0.00000000E+00
  0.00000000E+00  0.00000000E+00  0.00000000E+00
  0.00000000E+00  0.00000000E+00  0.00000000E+00
  0.00000000E+00  0.00000000E+00  0.00000000E+00
  0.00000000E+00  0.00000000E+00  0.00000000E+00
  0.00000000E+00  0.00000000E+00  0.00000000E+00
  0.00000000E+00  0.00000000E+00  0.00000000E+00
  0.00000000E+00  0.00000000E+00  0.00000000E+00
  0.00000000E+00  0.00000000E+00  0.00000000E+00
  0.00000000E+00  0.00000000E+00  0.00000000E+00
  0.00000000E+00  0.00000000E+00  0.00000000E+00
  0.00000000E+00  0.00000000E+00  0.00000000E+00
  0.00000000E+00  0.00000000E+00  0.00000000E+00
  0.00000000E+00  0.00000000E+00  0.00000000E+00
  0.00000000E+00  0.00000000E+00  0.00000000E+00
  0.00000000E+00  0.00000000E+00  0.00000000E+00
  0.00000000E+00  0.00000000E+00  0.00000000E+00
  0.00000000E+00  0.00000000E+00  0.00000000E+00
  0.00000000E+00  0.00000000E+00  0.00000000E+00
  0.00000000E+00  0.00000000E+00  0.00000000E+00
  0.00000000E+00  0.00000000E+00  0.00000000E+00
  0.00000000E+00  0.00000000E+00  0.00000000E+00
  0.00000000E+00  0.00000000E+00  0.00000000E+00
  0.00000000E+00  0.00000000E+00  0.00000000E+00
  0.00000000E+00  0.00000000E+00  0.00000000E+00
  0.00000000E+00  0.00000000E+00  0.00000000E+00
  0.00000000E+00  0.00000000E+00  0.00000000E+00
  0.00000000E+00  0.00000000E+00  0.00000000E+00
  0.00000000E+00  0.00000000E+00  0.00000000E+00
  0.00000000E+00  0.00000000E+00  0.00000000E+00
  0.00000000E+00  0.00000000E+00  0.00000000E+00
  0.00000000E+00  0.00000000E+00  0.00000000E+00
  0.00000000E+00  0.00000000E+00  0.00000000E+00
  0.00000000E+00  0.00000000E+00  0.00000000E+00
  0.00000000E+00  0.00000000E+00  0.00000000E+00
  0.00000000E+00  0.00000000E+00  0.00000000E+00
  0.00000000E+00  0.00000000E+00  0.00000000E+00
  0.00000000E+00  0.00000000E+00  0.00000000E+00
  0.00000000E+00  0.00000000E+00  0.00000000E+00
  0.00000000E+00  0.00000000E+00  0.00000000E+00
  0.00000000E+00  0.00000000E+00  0.00000000E+00
  0.00000000E+00  0.00000000E+00  0.00000000E+00
  0.00000000E+00  0.00000000E+00  0.00000000E+00
  0.00000000E+00  0.00000000E+00  0.00000000E+00
  0.00000000E+00  0.00000000E+00  0.00000000E+00
  0.00000000E+00  0.00000000E+00  0.00000000E+00
  0.00000000E+00  0.00000000E+00  0.00000000E+00
  0.00000000E+00  0.00000000E+00  0.00000000E+00
  0.00000000E+00  0.00000000E+00  0.00000000E+00
  0.00000000E+00  0.00000000E+00  0.00000000E+00
  0.00000000E+00  0.00000000E+00  0.00000000E+00
  0.00000000E+00  0.00000000E+00  0.00000000E+00
  0.00000000E+00  0.00000000E+00  0.00000000E+00
  0.00000000E+00  0.00000000E+00  0.00000000E+00
  0.00000000E+00  0.00000000E+00  0.00000000E+00
  0.00000000E+00  0.00000000E+00  0.00000000E+00
  0.00000000E+00  0.00000000E+00  0.00000000E+00
  0.00000000E+00  0.00000000E+00  0.00000000E+00
  0.00000000E+00  0.00000000E+00  0.00000000E+00
  0.00000000E+00  0.00000000E+00  0.00000000E+00
  0.00000000E+00  0.00000000E+00  0.00000000E+00
  0.00000000E+00  0.00000000E+00  0.00000000E+00
  0.00000000E+00  0.00000000E+00  0.00000000E+00
  0.00000000E+00  0.00000000E+00  0.00000000E+00
  0.00000000E+00  0.00000000E+00  0.00000000E+00
  0.00000000E+00  0.00000000E+00  0.00000000E+00
  0.00000000E+00  0.00000000E+00  0.00000000E+00
  0.00000000E+00  0.00000000E+00  0.00000000E+00
  0.00000000E+00  0.00000000E+00  0.00000000E+00
  0.00000000E+00  0.00000000E+00  0.00000000E+00
  0.00000000E+00  0.00000000E+00  0.00000000E+00
  0.00000000E+00  0.00000000E+00  0.00000000E+00
  0.00000000E+00  0.00000000E+00  0.00000000E+00
  0.00000000E+00  0.00000000E+00  0.00000000E+00
  0.00000000E+00  0.00000000E+00  0.00000000E+00
  0.00000000E+00  0.00000000E+00  0.00000000E+00
  0.00000000E+00  0.00000000E+00  0.00000000E+00
  0.00000000E+00  0.00000000E+00  0.00000000E+00
  0.00000000E+00  0.00000000E+00  0.00000000E+00
  0.00000000E+00  0.00000000E+00  0.00000000E+00
  0.00000000E+00  0.00000000E+00  0.00000000E+00
  0.00000000E+00  0.00000000E+00  0.00000000E+00
  0.00000000E+00  0.00000000E+00  0.00000000E+00
  0.00000000E+00  0.00000000E+00  0.00000000E+00
  0.00000000E+00  0.00000000E+00  0.00000000E+00
  0.00000000E+00  0.00000000E+00  0.00000000E+00
  0.00000000E+00  0.00000000E+00  0.00000000E+00
  0.00000000E+00  0.00000000E+00  0.00000000E+00
  0.00000000E+00  0.00000000E+00  0.00000000E+00
  0.00000000E+00  0.00000000E+00  0.00000000E+00
  0.00000000E+00  0.00000000E+00  0.00000000E+00
  0.00000000E+00  0.00000000E+00  0.00000000E+00
  0.00000000E+00  0.00000000E+00  0.00000000E+00
  0.00000000E+00  0.00000000E+00  0.00000000E+00
  0.00000000E+00  0.00000000E+00  0.00000000E+00
  0.00000000E+00  0.00000000E+00  0.00000000E+00
