H4 Ir32 O68
1.0
6.379014 0.000000 0.000000
0.000000 12.855029 0.000000
0.000000 0.000000 38.565086
H Ir O
4 32 68
direct
-0.156764 0.125000 0.681463 H
-0.156764 0.625000 0.681463 H
0.343236 0.125000 0.681463 H
0.343236 0.625000 0.681463 H
0.250000 0.124999 0.373682 Ir
0.250000 0.625001 0.373683 Ir
0.750000 0.124999 0.373682 Ir
0.750000 0.625001 0.373683 Ir
0.000000 0.375000 0.376632 Ir
-0.000000 0.875000 0.376633 Ir
0.500000 0.375000 0.376632 Ir
0.500000 0.875000 0.376633 Ir
0.250000 0.375000 0.458220 Ir
0.250000 0.875000 0.458220 Ir
0.750000 0.375000 0.458220 Ir
0.750000 0.875000 0.458220 Ir
0.000000 0.125000 0.457991 Ir
0.000000 0.625000 0.457991 Ir
0.500000 0.125000 0.457991 Ir
0.500000 0.625000 0.457991 Ir
0.250000 0.125000 0.541780 Ir
0.250000 0.625000 0.541780 Ir
0.750000 0.125000 0.541780 Ir
0.750000 0.625000 0.541780 Ir
0.000000 0.375000 0.542009 Ir
0.000000 0.875000 0.542009 Ir
0.500000 0.375000 0.542009 Ir
0.500000 0.875000 0.542009 Ir
0.250000 0.374998 0.626318 Ir
0.250000 0.875002 0.626318 Ir
0.750000 0.374998 0.626318 Ir
0.750000 0.875002 0.626318 Ir
-0.000000 0.125000 0.623368 Ir
-0.000000 0.625000 0.623368 Ir
0.500000 0.125000 0.623368 Ir
0.500000 0.625000 0.623368 Ir
0.000000 0.125000 0.342363 O
0.000000 0.625000 0.342363 O
0.500000 0.125000 0.342363 O
0.500000 0.625000 0.342363 O
0.250000 0.277145 0.374973 O
0.250000 0.777145 0.374973 O
0.750000 0.277145 0.374973 O
0.750000 0.777145 0.374973 O
-0.000000 0.125000 0.407597 O
0.000000 0.625000 0.407597 O
0.500000 0.125000 0.407597 O
0.500000 0.625000 0.407597 O
0.250000 0.472855 0.374973 O
0.250000 0.972855 0.374973 O
0.750000 0.472855 0.374973 O
0.750000 0.972855 0.374973 O
0.000000 0.375000 0.425759 O
0.000000 0.875000 0.425759 O
0.500000 0.375000 0.425759 O
0.500000 0.875000 0.425759 O
0.250000 0.027147 0.458329 O
0.250000 0.527147 0.458329 O
0.750000 0.027147 0.458329 O
0.750000 0.527147 0.458329 O
0.000000 0.375000 0.490967 O
0.000000 0.875000 0.490967 O
0.500000 0.375000 0.490967 O
0.500000 0.875000 0.490967 O
0.250000 0.222853 0.458329 O
0.250000 0.722853 0.458329 O
0.750000 0.222853 0.458329 O
0.750000 0.722853 0.458329 O
0.000000 0.125000 0.509033 O
0.000000 0.625000 0.509033 O
0.500000 0.125000 0.509033 O
0.500000 0.625000 0.509033 O
0.250000 0.277147 0.541671 O
0.250000 0.777147 0.541671 O
0.750000 0.277147 0.541671 O
0.750000 0.777147 0.541671 O
0.000000 0.125000 0.574241 O
0.000000 0.625000 0.574241 O
0.500000 0.125000 0.574241 O
0.500000 0.625000 0.574241 O
0.250000 0.472853 0.541671 O
0.250000 0.972853 0.541671 O
0.750000 0.472853 0.541671 O
0.750000 0.972853 0.541671 O
-0.000000 0.375000 0.592403 O
0.000000 0.875000 0.592403 O
0.500000 0.375000 0.592403 O
0.500000 0.875000 0.592403 O
0.250000 0.027145 0.625027 O
0.250000 0.527145 0.625027 O
0.750000 0.027145 0.625027 O
0.750000 0.527145 0.625027 O
-0.000000 0.375000 0.657637 O
0.000000 0.875000 0.657637 O
0.500000 0.375000 0.657637 O
0.500000 0.875000 0.657637 O
0.250000 0.222855 0.625027 O
0.250000 0.722855 0.625027 O
0.750000 0.222855 0.625027 O
0.750000 0.722855 0.625027 O
0.000000 0.125000 0.670520 O
0.000000 0.625000 0.670520 O
0.500000 0.125000 0.670520 O
0.500000 0.625000 0.670520 O
