Ir32 O71                                
   1.00000000000000     
     9.0898780000000006    0.0000000000000000    0.0000000000000000
     0.0000000000000000   11.1045669999999994   -0.0793000000000000
     0.0000000000000000    0.0000000000000000   31.3300599999999996
   Ir   O 
    32    71
Direct
  0.2632614963368697  0.3289183961856869  0.3751006798595181
  0.2632522054023314  0.8289288804252634  0.3751111465068768
  0.7632618780229616  0.3289433618029253  0.3751083892231734
  0.7632529410392026  0.8289249903178835  0.3751091028374363
  0.9880848537600375  0.0791005146948806  0.3757985152388521
  0.9879994890473193  0.5791601327991956  0.3757777046466712
  0.4880287555627462  0.0791316369141886  0.3757973820159572
  0.4880923572640567  0.5791345505728430  0.3757589079859635
  0.2482401686989635  0.0022638286629532  0.4574937166180868
  0.2477729395747330  0.5022771912031112  0.4572420846562387
  0.7480834882756753  0.0022887938051312  0.4574147954761833
  0.7482530455662288  0.5022906960306213  0.4575008228158960
  0.0017418002798953  0.2529973817259548  0.4577845645987295
  0.0017249721257596  0.7530510756908184  0.4578126209108292
  0.5017760334265930  0.2530045416302109  0.4577822681981225
  0.5017120062889834  0.7530233255213787  0.4577971743611502
  0.2509819194630404  0.1670114145117958  0.5411034470907330
  0.2517686871339600  0.6652712735238876  0.5411575951408372
  0.7512562784037213  0.1670842236079621  0.5412991118703758
  0.7509526629753903  0.6670440081784290  0.5410878670540110
  0.0012013979432156  0.4166695091381303  0.5422822194628730
 -0.0009728295698030  0.9180311200457295  0.5424128572779873
  0.5010928147766014  0.4167657136098871  0.5422647035075754
  0.5008333131152822  0.9166404719506287  0.5424493536680400
  0.2479975645181275  0.3341916866231136  0.6276704241966627
  0.2357479275094759  0.8352161843456267  0.6231908693711972
  0.7479767609626989  0.3342692177462577  0.6276685399939089
  0.7480105021063055  0.8340973669641112  0.6276639308352489
  0.0063182607620320  0.0851074926930854  0.6271688027322168
  0.0053257565313659  0.5849415410280780  0.6270431972676037
  0.5056470754815428  0.0849944705737004  0.6270356052480852
  0.5054846826427599  0.5849569909090323  0.6269660303866660
  0.3466202865152739  0.1881454210229602  0.3510932109216970
  0.3466137558077079  0.6881486611061203  0.3510925217289069
  0.8466448332668580  0.1881503747789257  0.3511002510947714
  0.8466103138432063  0.6881491282206843  0.3510921640537659
  0.0956352520711459  0.2318855336763642  0.3993403457548009
  0.0956318474382429  0.7318849847178278  0.3993414740190742
  0.5956357268948023  0.2318857635133982  0.3993401181743362
  0.5956365948390715  0.7318860755151956  0.3993395630781391
  0.1529405295793442  0.4817856134919593  0.3993218911681134
  0.1529625797373615  0.9817883635338998  0.3993304228464015
  0.6529625943937201  0.4817885709124937  0.3993293690810857
  0.6529542665833652  0.9817910842078204  0.3993297247384712
  0.4033906767248536  0.4382217351763783  0.3510385020185146
  0.4033864680268500  0.9382138290559600  0.3510427992960156
  0.9033730941788807  0.4382289120473070  0.3510408864501383
  0.9033676591886839  0.9382263288938779  0.3510410552108505
  0.3426432460986730  0.3531908779494219  0.4339977846479274
  0.3426788759619450  0.8532011234248785  0.4339999382738071
  0.8426711806621182  0.3531994067121864  0.4339999536095662
  0.8426680530103745  0.8531995285269037  0.4339993385792925
  0.0958237452803685  0.4005383924503915  0.4845234089061841
  0.0958094710488982  0.9005554862044762  0.4845328748695268
  0.5958276536473455  0.4005458384554916  0.4845271348874708
  0.5958100155751112  0.9005415379980604  0.4845324961385865
  0.1531429877155842  0.1490553493197275  0.4840118745504207
  0.1530755290809040  0.6490440403022011  0.4840009006413701
  0.6531536629045156  0.1490676537971036  0.4840184380274955
  0.6531429816654751  0.6490623479928911  0.4840136590000542
  0.4045999289177984  0.1017294802912230  0.4340015059021974
  0.4045964521516878  0.6017161196317716  0.4340000293302661
  0.9046006160011896  0.1017277224162253  0.4339996491448785
  0.9045976726944069  0.6017298009211207  0.4340016498711151
  0.3467933487080134  0.0180728059894152  0.5159865811873732
  0.3458898356931598  0.5183224067770739  0.5155443262959382
  0.8467452211755037  0.0180315643318111  0.5159588116485171
  0.8468029586274963  0.5180624207614482  0.5159865944369733
  0.0960653063245394  0.0659618099880291  0.5667291647885824
  0.0960034581287490  0.5658705720148018  0.5666994393365872
  0.5959838633216764  0.0659707027923772  0.5667162532958403
  0.5959895118762576  0.5659791715459973  0.5667060083711912
  0.1572165677753294  0.3136468631688728  0.5660525859343057
  0.1568010928908340  0.8135818674002228  0.5659739698895278
  0.6570359415263237  0.3136371816346331  0.5660535444440954
  0.6572242693314965  0.8136466639526734  0.5660536466757461
  0.4045644254023598  0.2679843175779718  0.5159791296452811
  0.4045619352743686  0.7679524665918186  0.5159846377637228
  0.9045839776225727  0.2679809828734505  0.5159832658473037
  0.9045295391548466  0.7679948059521376  0.5159839166177212
  0.3448793185737184  0.1869529259655752  0.6002324871119643
  0.3449059918605474  0.6868139951796722  0.5998945195490666
  0.8449968151245220  0.1867811895133913  0.6001978699392065
  0.8448720768440913  0.6869602821059688  0.6002272191153002
  0.0961726616503815  0.2322810011604693  0.6492346032411425
  0.0974198401631448  0.7324071062105680  0.6487992939110139
  0.5960026323222150  0.2322834843642945  0.6492509924190470
  0.5958985404849754  0.7324295276962890  0.6492478778644641
  0.1501715647606291  0.4832934151527307  0.6477567478500322
  0.1533928240544985  0.9765472726906353  0.6478437693910923
  0.6501707712808529  0.4832932000726681  0.6477612276792118
  0.6501776202009857  0.9832916264197505  0.6477599621301128
  0.4023567522075909  0.4367218840573405  0.6001398861603819
  0.4006681632670044  0.9365512110915784  0.6006318437553581
  0.9023632978013122  0.4367131919922909  0.6001383709706478
  0.9029164392854691  0.9369551491413626  0.6004642723964531
  0.3432841197915172  0.3490364852834986  0.6784612447769001
  0.8432719154690521  0.3490407036952799  0.6784620050534154
  0.8433518726888991  0.8490136402558186  0.6784575789656146
  0.9069401907011627  0.0934922154017060  0.6761530224098862
  0.9068684271778419  0.5935427161738630  0.6761345738556027
  0.4068694343105808  0.0935291349004356  0.6761336816485538
  0.4068617202116628  0.5935499684243091  0.6761217065578647
 
  0.00000000E+00  0.00000000E+00  0.00000000E+00
  0.00000000E+00  0.00000000E+00  0.00000000E+00
  0.00000000E+00  0.00000000E+00  0.00000000E+00
  0.00000000E+00  0.00000000E+00  0.00000000E+00
  0.00000000E+00  0.00000000E+00  0.00000000E+00
  0.00000000E+00  0.00000000E+00  0.00000000E+00
  0.00000000E+00  0.00000000E+00  0.00000000E+00
  0.00000000E+00  0.00000000E+00  0.00000000E+00
  0.00000000E+00  0.00000000E+00  0.00000000E+00
  0.00000000E+00  0.00000000E+00  0.00000000E+00
  0.00000000E+00  0.00000000E+00  0.00000000E+00
  0.00000000E+00  0.00000000E+00  0.00000000E+00
  0.00000000E+00  0.00000000E+00  0.00000000E+00
  0.00000000E+00  0.00000000E+00  0.00000000E+00
  0.00000000E+00  0.00000000E+00  0.00000000E+00
  0.00000000E+00  0.00000000E+00  0.00000000E+00
  0.00000000E+00  0.00000000E+00  0.00000000E+00
  0.00000000E+00  0.00000000E+00  0.00000000E+00
  0.00000000E+00  0.00000000E+00  0.00000000E+00
  0.00000000E+00  0.00000000E+00  0.00000000E+00
  0.00000000E+00  0.00000000E+00  0.00000000E+00
  0.00000000E+00  0.00000000E+00  0.00000000E+00
  0.00000000E+00  0.00000000E+00  0.00000000E+00
  0.00000000E+00  0.00000000E+00  0.00000000E+00
  0.00000000E+00  0.00000000E+00  0.00000000E+00
  0.00000000E+00  0.00000000E+00  0.00000000E+00
  0.00000000E+00  0.00000000E+00  0.00000000E+00
  0.00000000E+00  0.00000000E+00  0.00000000E+00
  0.00000000E+00  0.00000000E+00  0.00000000E+00
  0.00000000E+00  0.00000000E+00  0.00000000E+00
  0.00000000E+00  0.00000000E+00  0.00000000E+00
  0.00000000E+00  0.00000000E+00  0.00000000E+00
  0.00000000E+00  0.00000000E+00  0.00000000E+00
  0.00000000E+00  0.00000000E+00  0.00000000E+00
  0.00000000E+00  0.00000000E+00  0.00000000E+00
  0.00000000E+00  0.00000000E+00  0.00000000E+00
  0.00000000E+00  0.00000000E+00  0.00000000E+00
  0.00000000E+00  0.00000000E+00  0.00000000E+00
  0.00000000E+00  0.00000000E+00  0.00000000E+00
  0.00000000E+00  0.00000000E+00  0.00000000E+00
  0.00000000E+00  0.00000000E+00  0.00000000E+00
  0.00000000E+00  0.00000000E+00  0.00000000E+00
  0.00000000E+00  0.00000000E+00  0.00000000E+00
  0.00000000E+00  0.00000000E+00  0.00000000E+00
  0.00000000E+00  0.00000000E+00  0.00000000E+00
  0.00000000E+00  0.00000000E+00  0.00000000E+00
  0.00000000E+00  0.00000000E+00  0.00000000E+00
  0.00000000E+00  0.00000000E+00  0.00000000E+00
  0.00000000E+00  0.00000000E+00  0.00000000E+00
  0.00000000E+00  0.00000000E+00  0.00000000E+00
  0.00000000E+00  0.00000000E+00  0.00000000E+00
  0.00000000E+00  0.00000000E+00  0.00000000E+00
  0.00000000E+00  0.00000000E+00  0.00000000E+00
  0.00000000E+00  0.00000000E+00  0.00000000E+00
  0.00000000E+00  0.00000000E+00  0.00000000E+00
  0.00000000E+00  0.00000000E+00  0.00000000E+00
  0.00000000E+00  0.00000000E+00  0.00000000E+00
  0.00000000E+00  0.00000000E+00  0.00000000E+00
  0.00000000E+00  0.00000000E+00  0.00000000E+00
  0.00000000E+00  0.00000000E+00  0.00000000E+00
  0.00000000E+00  0.00000000E+00  0.00000000E+00
  0.00000000E+00  0.00000000E+00  0.00000000E+00
  0.00000000E+00  0.00000000E+00  0.00000000E+00
  0.00000000E+00  0.00000000E+00  0.00000000E+00
  0.00000000E+00  0.00000000E+00  0.00000000E+00
  0.00000000E+00  0.00000000E+00  0.00000000E+00
  0.00000000E+00  0.00000000E+00  0.00000000E+00
  0.00000000E+00  0.00000000E+00  0.00000000E+00
  0.00000000E+00  0.00000000E+00  0.00000000E+00
  0.00000000E+00  0.00000000E+00  0.00000000E+00
  0.00000000E+00  0.00000000E+00  0.00000000E+00
  0.00000000E+00  0.00000000E+00  0.00000000E+00
  0.00000000E+00  0.00000000E+00  0.00000000E+00
  0.00000000E+00  0.00000000E+00  0.00000000E+00
  0.00000000E+00  0.00000000E+00  0.00000000E+00
  0.00000000E+00  0.00000000E+00  0.00000000E+00
  0.00000000E+00  0.00000000E+00  0.00000000E+00
  0.00000000E+00  0.00000000E+00  0.00000000E+00
  0.00000000E+00  0.00000000E+00  0.00000000E+00
  0.00000000E+00  0.00000000E+00  0.00000000E+00
  0.00000000E+00  0.00000000E+00  0.00000000E+00
  0.00000000E+00  0.00000000E+00  0.00000000E+00
  0.00000000E+00  0.00000000E+00  0.00000000E+00
  0.00000000E+00  0.00000000E+00  0.00000000E+00
  0.00000000E+00  0.00000000E+00  0.00000000E+00
  0.00000000E+00  0.00000000E+00  0.00000000E+00
  0.00000000E+00  0.00000000E+00  0.00000000E+00
  0.00000000E+00  0.00000000E+00  0.00000000E+00
  0.00000000E+00  0.00000000E+00  0.00000000E+00
  0.00000000E+00  0.00000000E+00  0.00000000E+00
  0.00000000E+00  0.00000000E+00  0.00000000E+00
  0.00000000E+00  0.00000000E+00  0.00000000E+00
  0.00000000E+00  0.00000000E+00  0.00000000E+00
  0.00000000E+00  0.00000000E+00  0.00000000E+00
  0.00000000E+00  0.00000000E+00  0.00000000E+00
  0.00000000E+00  0.00000000E+00  0.00000000E+00
  0.00000000E+00  0.00000000E+00  0.00000000E+00
  0.00000000E+00  0.00000000E+00  0.00000000E+00
  0.00000000E+00  0.00000000E+00  0.00000000E+00
  0.00000000E+00  0.00000000E+00  0.00000000E+00
  0.00000000E+00  0.00000000E+00  0.00000000E+00
  0.00000000E+00  0.00000000E+00  0.00000000E+00
  0.00000000E+00  0.00000000E+00  0.00000000E+00
