Ba10 Sr10 Co24 O69                      
    1.000000000000000     
    11.1057150000000000    0.0000000000000000    0.0000000000000000
    -0.0047930000000000    5.5528550000000001    0.0000000000000000
     0.0000000000000000    0.0000000000000000   87.2902260000000041
   Ba   Sr   Co   O 
    10    10    24    69
Direct
  0.9994017498255923  0.9990976221442600  0.5550674914104713
  0.4999228021395843  0.9988242619905842  0.5550681263079962
  0.2530996349817462  0.5003682101457992  0.6008192717457219
  0.7529530217261919  0.5005455229283055  0.6008748278373089
 -0.0002898334436083  0.9986314571403033  0.4636946670365122
  0.5003354398700660  0.9986244078987717  0.4637064587936262
  0.2494788536011665  0.4950098108971828  0.5094681692492798
  0.7492765430718406  0.4961572401269749  0.5094480277468879
  0.2494777519911981  0.5008917189932530  0.4168401754406423
  0.7495377963169256  0.4992528539903671  0.4168216852869745
  0.2499299573578393  0.4908374346143485  0.5552624035519256
  0.7498615446513082  0.4923050993438385  0.5552508207706254
  0.5008387273440918  0.0037437936324360  0.6009578232334184
 -0.0003334503749128  0.0089234558896501  0.6009695810133527
  0.2526016296399620  0.4994271799906865  0.4633193841108111
  0.7501394102669247  0.4923065749089701  0.4634267595027693
  0.4994660273122871  0.9924772297852477  0.5088692402519414
  0.9996060732238912  0.9924912136783893  0.5088674368803011
  0.4997659103473381  0.0002034762042152  0.4175492979475557
  0.0000057675912754  0.0002769386874019  0.4175556018979745
  0.2477225042871170  0.0103777972335400  0.6235222805371695
  0.7478918848581386  0.0102919876844061  0.6217932532920926
  0.0015722138707229  0.5109245272304138  0.6218918962581899
  0.5021411125449510  0.5122561821408341  0.6219090686115796
  0.9996334669507860  0.5087336331157415  0.5779993064735638
  0.4996918295242703  0.5085412132143027  0.5780020391330527
  0.2498722782778758  0.0007219353263496  0.5773992888639297
  0.7498502384919998  0.0009391087165234  0.5773650245819330
  0.2508885117442697  0.9920657161797085  0.5322161161724305
  0.7500798323316614  0.9986273677657214  0.5320489580471172
  0.9996979919721469  0.4989690261589720  0.5320199574191715
  0.4996792344444146  0.4986363118696664  0.5320215081807795
  0.9991527182481190  0.5061631728167936  0.4863683111118068
  0.4990956801279235  0.5060217361758971  0.4863855887983958
  0.2499054053605367  0.9999433960101463  0.4866957897136029
  0.7499203146771868  0.9995806167154109  0.4866821083815729
  0.2499554210990488  0.9993461212683191  0.4413320961304750
  0.7508576082472657  0.9918745432735573  0.4408986807009130
 -0.0001611610907826  0.4988502799068824  0.4413315422897140
  0.4999245464295808  0.4987499088971163  0.4413216830542099
  0.9980773490260915  0.5106597450228570  0.3953574023351100
  0.4980734773788325  0.5106562571355882  0.3953524284081908
  0.2517124321908663  0.0108301324628366  0.3953118052993966
  0.7517069419370556  0.0106580807434787  0.3952855732805590
  0.0000081629552439  0.4998736864747061  0.6004360054291144
  0.4999908429103229  0.4998597113045155  0.6004370036876827
  0.9953032784796481  0.4998741454528068  0.5531800397034021
  0.5046913981416593  0.5000018440519566  0.5531804329734873
  0.1309304473134209  0.7875443913247294  0.6224157263830107
  0.6309993627473797  0.7876461371975377  0.6228982798129402
  0.3811543904110595  0.7123942587168262  0.6229012601160167
  0.8810776878988255  0.7125012243221939  0.6229048561187625
  0.3691198749315301  0.2125511596334535  0.6228868460133290
  0.8691076885964284  0.2080827752528459  0.6227507216193182
  0.1188384894853171  0.2876084529306371  0.6228981911339314
  0.6189282532306024  0.2874976058088365  0.6229025651668506
  0.2499911799367456 -0.0000647583277472  0.5542769821413562
  0.7499917803098362  0.9999392016966295  0.5542753230955134
  0.2500007147072122  0.0000089579715713  0.5996035175113601
  0.7499952875980738  0.9999362243181967  0.5995629019727292
  0.3771949041653193  0.2802028900162457  0.5779804318876702
  0.8772037048078100  0.2801785650066332  0.5779932237980091
  0.1262717192907183  0.2247576350260531  0.5781128274552939
  0.6262677962258517  0.2247494701869187  0.5781151207017957
  0.1228478786262256  0.7198449341567871  0.5779773008671641
  0.6228434908805979  0.7199042376007859  0.5779885579085899
  0.3737456945355522  0.7751388695919393  0.5781136049504311
  0.8737446756481617  0.7751508491131518  0.5781154559920886
  0.9953095582901170  0.4999503980280498  0.5078626978786257
  0.4953125033001277  0.4999505726713339  0.5078630040679102
 -0.0000055431168862  0.4999330369291697  0.4644875166971715
  0.4999953548063772  0.4999322108353028  0.4644868394436514
  0.1379958808199825  0.7747174690758396  0.5327968793798803
  0.6380469599698522  0.7748609891725357  0.5327944932309487
  0.3880266561229760  0.7249610205320671  0.5327914086928154
  0.8880335344147395  0.7250021534502993  0.5327869193254985
  0.3619070145187845  0.2249504405160618  0.5327941066922958
  0.8619253432373918  0.2250098576296586  0.5327906692737859
  0.1119418960903589  0.2749684325452244  0.5327887120875886
  0.6119584393079004  0.2749070433987373  0.5327844295323687
  0.2500038890995861  0.9875183599479930  0.4635261967112888
  0.7499958827844754  0.9875206154610494  0.4635245209606569
  0.2499894485166651  0.9875640916718678  0.5088447782797153
  0.7499915301626087  0.9875729967352187  0.5088459912060003
  0.3927966198410458  0.2624549482516626  0.4869546952235940
  0.8927960401161877  0.2624564355637917  0.4869548717660586
  0.1428587584717242  0.2373838440193862  0.4864749087234553
  0.6428565727014893  0.2373847066451735  0.4864747752828426
  0.1072150885772806  0.7375493539470728  0.4869570057922706
  0.6072139731726310  0.7375467648483408  0.4869571479151701
  0.3571815022707130  0.7624971866886344  0.4864744291573774
  0.8571814115753836  0.7624955563364847  0.4864747381181578
 -0.0000045069536707  0.4999489406593419  0.4191632962686966
  0.4999945998617837  0.4999478637848727  0.4191638222604537
  0.1380106561035057  0.7749325775836337  0.4406247070892725
  0.6379689232422605  0.7748099406514140  0.4406233536736668
  0.3857778509156229  0.7249618432809948  0.4406343988896618
  0.8857651869147530  0.7249632789190041  0.4406335874511043
  0.3619637284338878  0.2249782168778311  0.4406293111767156
  0.8619288379582936  0.2248629563296426  0.4406277405322054
  0.1142392097682576  0.2749374907671651  0.4406362054397446
  0.6142239828891042  0.2749588073462216  0.4406357106622703
  0.2499864363564879  0.9999469329713337  0.4167653305699324
  0.7499848985683211  0.9999180951133017  0.4167679648393547
  0.3881767116423181  0.2751082490447795  0.3937620893653782
  0.8881766590528708  0.2751068293956343  0.3937619261316546
  0.1380796166757854  0.2248081673560368  0.3937520304272284
  0.6380692368293750  0.2248045027293434  0.3937515357292500
  0.1118249854153010  0.7249293874906461  0.3937612025203701
  0.6118252998924106  0.7249322377391136  0.3937611444058767
  0.3619087857144780  0.7752105470893395  0.3937531535836968
  0.8619162898320007  0.7752271575510834  0.3937529897144534
  0.2558884016310209  0.0124067235340470  0.6423476302989893
 
  0.00000000E+00  0.00000000E+00  0.00000000E+00
  0.00000000E+00  0.00000000E+00  0.00000000E+00
  0.00000000E+00  0.00000000E+00  0.00000000E+00
  0.00000000E+00  0.00000000E+00  0.00000000E+00
  0.00000000E+00  0.00000000E+00  0.00000000E+00
  0.00000000E+00  0.00000000E+00  0.00000000E+00
  0.00000000E+00  0.00000000E+00  0.00000000E+00
  0.00000000E+00  0.00000000E+00  0.00000000E+00
  0.00000000E+00  0.00000000E+00  0.00000000E+00
  0.00000000E+00  0.00000000E+00  0.00000000E+00
  0.00000000E+00  0.00000000E+00  0.00000000E+00
  0.00000000E+00  0.00000000E+00  0.00000000E+00
  0.00000000E+00  0.00000000E+00  0.00000000E+00
  0.00000000E+00  0.00000000E+00  0.00000000E+00
  0.00000000E+00  0.00000000E+00  0.00000000E+00
  0.00000000E+00  0.00000000E+00  0.00000000E+00
  0.00000000E+00  0.00000000E+00  0.00000000E+00
  0.00000000E+00  0.00000000E+00  0.00000000E+00
  0.00000000E+00  0.00000000E+00  0.00000000E+00
  0.00000000E+00  0.00000000E+00  0.00000000E+00
  0.00000000E+00  0.00000000E+00  0.00000000E+00
  0.00000000E+00  0.00000000E+00  0.00000000E+00
  0.00000000E+00  0.00000000E+00  0.00000000E+00
  0.00000000E+00  0.00000000E+00  0.00000000E+00
  0.00000000E+00  0.00000000E+00  0.00000000E+00
  0.00000000E+00  0.00000000E+00  0.00000000E+00
  0.00000000E+00  0.00000000E+00  0.00000000E+00
  0.00000000E+00  0.00000000E+00  0.00000000E+00
  0.00000000E+00  0.00000000E+00  0.00000000E+00
  0.00000000E+00  0.00000000E+00  0.00000000E+00
  0.00000000E+00  0.00000000E+00  0.00000000E+00
  0.00000000E+00  0.00000000E+00  0.00000000E+00
  0.00000000E+00  0.00000000E+00  0.00000000E+00
  0.00000000E+00  0.00000000E+00  0.00000000E+00
  0.00000000E+00  0.00000000E+00  0.00000000E+00
  0.00000000E+00  0.00000000E+00  0.00000000E+00
  0.00000000E+00  0.00000000E+00  0.00000000E+00
  0.00000000E+00  0.00000000E+00  0.00000000E+00
  0.00000000E+00  0.00000000E+00  0.00000000E+00
  0.00000000E+00  0.00000000E+00  0.00000000E+00
  0.00000000E+00  0.00000000E+00  0.00000000E+00
  0.00000000E+00  0.00000000E+00  0.00000000E+00
  0.00000000E+00  0.00000000E+00  0.00000000E+00
  0.00000000E+00  0.00000000E+00  0.00000000E+00
  0.00000000E+00  0.00000000E+00  0.00000000E+00
  0.00000000E+00  0.00000000E+00  0.00000000E+00
  0.00000000E+00  0.00000000E+00  0.00000000E+00
  0.00000000E+00  0.00000000E+00  0.00000000E+00
  0.00000000E+00  0.00000000E+00  0.00000000E+00
  0.00000000E+00  0.00000000E+00  0.00000000E+00
  0.00000000E+00  0.00000000E+00  0.00000000E+00
  0.00000000E+00  0.00000000E+00  0.00000000E+00
  0.00000000E+00  0.00000000E+00  0.00000000E+00
  0.00000000E+00  0.00000000E+00  0.00000000E+00
  0.00000000E+00  0.00000000E+00  0.00000000E+00
  0.00000000E+00  0.00000000E+00  0.00000000E+00
  0.00000000E+00  0.00000000E+00  0.00000000E+00
  0.00000000E+00  0.00000000E+00  0.00000000E+00
  0.00000000E+00  0.00000000E+00  0.00000000E+00
  0.00000000E+00  0.00000000E+00  0.00000000E+00
  0.00000000E+00  0.00000000E+00  0.00000000E+00
  0.00000000E+00  0.00000000E+00  0.00000000E+00
  0.00000000E+00  0.00000000E+00  0.00000000E+00
  0.00000000E+00  0.00000000E+00  0.00000000E+00
  0.00000000E+00  0.00000000E+00  0.00000000E+00
  0.00000000E+00  0.00000000E+00  0.00000000E+00
  0.00000000E+00  0.00000000E+00  0.00000000E+00
  0.00000000E+00  0.00000000E+00  0.00000000E+00
  0.00000000E+00  0.00000000E+00  0.00000000E+00
  0.00000000E+00  0.00000000E+00  0.00000000E+00
  0.00000000E+00  0.00000000E+00  0.00000000E+00
  0.00000000E+00  0.00000000E+00  0.00000000E+00
  0.00000000E+00  0.00000000E+00  0.00000000E+00
  0.00000000E+00  0.00000000E+00  0.00000000E+00
  0.00000000E+00  0.00000000E+00  0.00000000E+00
  0.00000000E+00  0.00000000E+00  0.00000000E+00
  0.00000000E+00  0.00000000E+00  0.00000000E+00
  0.00000000E+00  0.00000000E+00  0.00000000E+00
  0.00000000E+00  0.00000000E+00  0.00000000E+00
  0.00000000E+00  0.00000000E+00  0.00000000E+00
  0.00000000E+00  0.00000000E+00  0.00000000E+00
  0.00000000E+00  0.00000000E+00  0.00000000E+00
  0.00000000E+00  0.00000000E+00  0.00000000E+00
  0.00000000E+00  0.00000000E+00  0.00000000E+00
  0.00000000E+00  0.00000000E+00  0.00000000E+00
  0.00000000E+00  0.00000000E+00  0.00000000E+00
  0.00000000E+00  0.00000000E+00  0.00000000E+00
  0.00000000E+00  0.00000000E+00  0.00000000E+00
  0.00000000E+00  0.00000000E+00  0.00000000E+00
  0.00000000E+00  0.00000000E+00  0.00000000E+00
  0.00000000E+00  0.00000000E+00  0.00000000E+00
  0.00000000E+00  0.00000000E+00  0.00000000E+00
  0.00000000E+00  0.00000000E+00  0.00000000E+00
  0.00000000E+00  0.00000000E+00  0.00000000E+00
  0.00000000E+00  0.00000000E+00  0.00000000E+00
  0.00000000E+00  0.00000000E+00  0.00000000E+00
  0.00000000E+00  0.00000000E+00  0.00000000E+00
  0.00000000E+00  0.00000000E+00  0.00000000E+00
  0.00000000E+00  0.00000000E+00  0.00000000E+00
  0.00000000E+00  0.00000000E+00  0.00000000E+00
  0.00000000E+00  0.00000000E+00  0.00000000E+00
  0.00000000E+00  0.00000000E+00  0.00000000E+00
  0.00000000E+00  0.00000000E+00  0.00000000E+00
  0.00000000E+00  0.00000000E+00  0.00000000E+00
  0.00000000E+00  0.00000000E+00  0.00000000E+00
  0.00000000E+00  0.00000000E+00  0.00000000E+00
  0.00000000E+00  0.00000000E+00  0.00000000E+00
  0.00000000E+00  0.00000000E+00  0.00000000E+00
  0.00000000E+00  0.00000000E+00  0.00000000E+00
  0.00000000E+00  0.00000000E+00  0.00000000E+00
  0.00000000E+00  0.00000000E+00  0.00000000E+00
  0.00000000E+00  0.00000000E+00  0.00000000E+00
  0.00000000E+00  0.00000000E+00  0.00000000E+00
