H1 Ir32 O69                             
   1.00000000000000     
     6.3790139999999997    0.0000000000000000    0.0000000000000000
     0.0000000000000000   12.8550290000000000    0.0000000000000000
     0.0000000000000000    0.0000000000000000   38.5650860000000009
   H    Ir   O 
     1    32    69
Direct
  0.0571831969228271  0.4772930406205534  0.6774259673686895
  0.2507694226271275  0.1249730904571457  0.3735525412399414
  0.2507444908436312  0.6249754482913189  0.3735523333499258
  0.7507640818438078  0.1249727634731502  0.3735526753130008
  0.7508081668690448  0.6249679384660102  0.3735494932571894
  0.0015333305628223  0.3749731977411659  0.3765854781472928
  0.0015321148825976  0.8749785832347645  0.3765875389622196
  0.5015337661283823  0.3749702086331006  0.3765873181352279
  0.5015326538865235  0.8749792926795267  0.3765879843495429
  0.2517676253782846  0.3748324016110497  0.4581853671059868
  0.2518348247612525  0.8749291213144081  0.4581888515286644
  0.7518143334406302  0.3748443276360655  0.4581859931153245
  0.7518057770377933  0.8749470174192544  0.4581823218543525
  0.0008372098613398  0.1249410753528089  0.4579735851818035
  0.0008651521541761  0.6249448400233640  0.4579740863210537
  0.5008441621761853  0.1249453394606609  0.4579756939974174
  0.5008370255329894  0.6249728952170875  0.4579710718292713
  0.2514598831593644  0.1248853093341677  0.5414040875943932
  0.2516414657866071  0.6246059716648926  0.5414223695040448
  0.7515301153223900  0.1248756917494930  0.5414123265557708
  0.7504273489226303  0.6254281851850897  0.5413166822980726
  0.0014565412725633  0.3750648180125387  0.5419081873232582
  0.0013761247056504  0.8748807209704449  0.5419368756610630
  0.5017374882533157  0.3747951473209840  0.5418368023054797
  0.5013074277166809  0.8750449344301299  0.5419366160410950
  0.2531387823414927  0.3745233083069129  0.6253342277717772
  0.2505286351460767  0.8749054624499889  0.6263753427207057
  0.7491085369329685  0.3752602226449000  0.6255731747565342
  0.7504126379009813  0.8747100244299874  0.6263590145203065
  0.0008501369338334  0.1251322446046638  0.6265187253263181
 -0.0003987127589397  0.6238962784605278  0.6247016311769725
  0.5009932022352844  0.1249878477144573  0.6265216208476422
  0.5004074742165071  0.6255525590548197  0.6265069999931949
  0.0002442102370173  0.1249987456779476  0.3423535503490915
  0.0002452399854713  0.6249986516265307  0.3423530335938857
  0.5002442334273139  0.1249988315959605  0.3423534604574777
  0.5002449279242809  0.6249991037652808  0.3423535949438691
  0.2503572110178809  0.2771460253236430  0.3749636453610058
  0.2503597284520711  0.7771461644351561  0.3749635593716320
  0.7503569315610844  0.2771459800885130  0.3749636300730702
  0.7503588282551492  0.7771459854424467  0.3749635470296370
  0.0004204949864096  0.1249992382442043  0.4075722803592435
  0.0004205431440208  0.6249988536312340  0.4075722242995738
  0.5004212671073236  0.1249989356777975  0.4075719263207616
  0.5004172207192624  0.6249990068657969  0.4075747830417229
  0.2503611016235893  0.4728472752179853  0.3749636468639574
  0.2503625114202715  0.9728483175190719  0.3749636459873747
  0.7503604239537075  0.4728484127561768  0.3749637199257187
  0.7503622491511273  0.9728484038946977  0.3749636270315141
  0.0005011883142960  0.3749992903928271  0.4257521181459402
  0.0005015008508936  0.8749990029334949  0.4257522300270736
  0.5005022492976697  0.3750004046462904  0.4257514994881034
  0.5005465568570442  0.8749987185102497  0.4257521850994052
  0.2503452411381082  0.0271458556756370  0.4583194196326342
  0.2503391551155611  0.5271436418963633  0.4583195907838479
  0.7503454908259085  0.0271464355547384  0.4583194646833721
  0.7503522207881496  0.5271445931070631  0.4583195547381100
  0.0004051821203831  0.3749984282873232  0.4909511998438531
  0.0004000933045039  0.8749984430166312  0.4909529839906898
  0.5004112920310336  0.3749999748814902  0.4909522646700191
  0.5003974667852433  0.8749972943391859  0.4909532160814837
  0.2503487863797784  0.2228417576756070  0.4583195920817423
  0.2503431724495625  0.7228456970103715  0.4583194597371094
  0.7503519181980171  0.2228421637671051  0.4583195787259107
  0.7503549052893619  0.7228459682556325  0.4583196657134124
  0.0003355291554572  0.1249976942517160  0.5090262530374193
  0.0002989738970077  0.6249985970829430  0.5090264512010730
  0.5003359393619453  0.1249979368723646  0.5090264423947674
  0.5002770577099038  0.6249980052752117  0.5090239728146796
  0.2503768168596377  0.2771329655462810  0.5416564517471898
  0.2503756049762446  0.7771282510080467  0.5416563817514214
  0.7504119478611080  0.2771326268275495  0.5416563243073740
  0.7503357749437121  0.7771508482169620  0.5416558156958908
  0.0003488240834247  0.1249990885875384  0.5742739987236321
  0.0005049539741620  0.6250090790111006  0.5741997867970847
  0.5003494120175687  0.1249978917061795  0.5742737638160508
  0.5003201443177440  0.6250010605999036  0.5742729876731615
  0.2504099713628758  0.4728431505971161  0.5416565226979162
  0.2503688515215896  0.9728548503042965  0.5416565146607434
  0.7503742089406930  0.4728691767924672  0.5416566504744720
  0.7503805921078265  0.9728550316891905  0.5416564882297781
  0.0002954286747224  0.3749967974199473  0.5923783391595587
  0.0002943843917935  0.8749982063516334  0.5923946578677770
  0.5003859462894023  0.3749888721621687  0.5923696757993753
  0.5002766986380708  0.8750017956114716  0.5923932649707274
  0.2500314607441905  0.0278731500351341  0.6238551246453079
  0.2500470799965882  0.5278526493801968  0.6238584691405300
  0.7500407220739306  0.0278684676090487  0.6238550423896019
  0.7500305451942434  0.5278701848739666  0.6238554632534478
  0.0006577468012756  0.3750678828708445  0.6576160648877103
  0.0002232632777752  0.8749957180739802  0.6576154850540683
  0.5004033917487698  0.3750027639805183  0.6575798974828719
  0.5002415562246106  0.8749953471051530  0.6576155316595937
  0.2500447903057984  0.2221157461011166  0.6238536069825820
  0.2500097171808632  0.7221163931757517  0.6238552935108801
  0.7500354645972902  0.2221282921921495  0.6238547172451810
  0.7500066357885745  0.7221319350342277  0.6238584738972119
  0.0004519538326772  0.1249961506373343  0.6722661396053634
  0.5004503841650578  0.1249987798318091  0.6722666054713419
  0.5005631064932807  0.6250020551910653  0.6722646486038504
 -0.0066194978373032  0.6284244186721156  0.6736613933164929
  0.0625316526191701  0.5450322296435869  0.6932894151281139
 
  0.00000000E+00  0.00000000E+00  0.00000000E+00
  0.00000000E+00  0.00000000E+00  0.00000000E+00
  0.00000000E+00  0.00000000E+00  0.00000000E+00
  0.00000000E+00  0.00000000E+00  0.00000000E+00
  0.00000000E+00  0.00000000E+00  0.00000000E+00
  0.00000000E+00  0.00000000E+00  0.00000000E+00
  0.00000000E+00  0.00000000E+00  0.00000000E+00
  0.00000000E+00  0.00000000E+00  0.00000000E+00
  0.00000000E+00  0.00000000E+00  0.00000000E+00
  0.00000000E+00  0.00000000E+00  0.00000000E+00
  0.00000000E+00  0.00000000E+00  0.00000000E+00
  0.00000000E+00  0.00000000E+00  0.00000000E+00
  0.00000000E+00  0.00000000E+00  0.00000000E+00
  0.00000000E+00  0.00000000E+00  0.00000000E+00
  0.00000000E+00  0.00000000E+00  0.00000000E+00
  0.00000000E+00  0.00000000E+00  0.00000000E+00
  0.00000000E+00  0.00000000E+00  0.00000000E+00
  0.00000000E+00  0.00000000E+00  0.00000000E+00
  0.00000000E+00  0.00000000E+00  0.00000000E+00
  0.00000000E+00  0.00000000E+00  0.00000000E+00
  0.00000000E+00  0.00000000E+00  0.00000000E+00
  0.00000000E+00  0.00000000E+00  0.00000000E+00
  0.00000000E+00  0.00000000E+00  0.00000000E+00
  0.00000000E+00  0.00000000E+00  0.00000000E+00
  0.00000000E+00  0.00000000E+00  0.00000000E+00
  0.00000000E+00  0.00000000E+00  0.00000000E+00
  0.00000000E+00  0.00000000E+00  0.00000000E+00
  0.00000000E+00  0.00000000E+00  0.00000000E+00
  0.00000000E+00  0.00000000E+00  0.00000000E+00
  0.00000000E+00  0.00000000E+00  0.00000000E+00
  0.00000000E+00  0.00000000E+00  0.00000000E+00
  0.00000000E+00  0.00000000E+00  0.00000000E+00
  0.00000000E+00  0.00000000E+00  0.00000000E+00
  0.00000000E+00  0.00000000E+00  0.00000000E+00
  0.00000000E+00  0.00000000E+00  0.00000000E+00
  0.00000000E+00  0.00000000E+00  0.00000000E+00
  0.00000000E+00  0.00000000E+00  0.00000000E+00
  0.00000000E+00  0.00000000E+00  0.00000000E+00
  0.00000000E+00  0.00000000E+00  0.00000000E+00
  0.00000000E+00  0.00000000E+00  0.00000000E+00
  0.00000000E+00  0.00000000E+00  0.00000000E+00
  0.00000000E+00  0.00000000E+00  0.00000000E+00
  0.00000000E+00  0.00000000E+00  0.00000000E+00
  0.00000000E+00  0.00000000E+00  0.00000000E+00
  0.00000000E+00  0.00000000E+00  0.00000000E+00
  0.00000000E+00  0.00000000E+00  0.00000000E+00
  0.00000000E+00  0.00000000E+00  0.00000000E+00
  0.00000000E+00  0.00000000E+00  0.00000000E+00
  0.00000000E+00  0.00000000E+00  0.00000000E+00
  0.00000000E+00  0.00000000E+00  0.00000000E+00
  0.00000000E+00  0.00000000E+00  0.00000000E+00
  0.00000000E+00  0.00000000E+00  0.00000000E+00
  0.00000000E+00  0.00000000E+00  0.00000000E+00
  0.00000000E+00  0.00000000E+00  0.00000000E+00
  0.00000000E+00  0.00000000E+00  0.00000000E+00
  0.00000000E+00  0.00000000E+00  0.00000000E+00
  0.00000000E+00  0.00000000E+00  0.00000000E+00
  0.00000000E+00  0.00000000E+00  0.00000000E+00
  0.00000000E+00  0.00000000E+00  0.00000000E+00
  0.00000000E+00  0.00000000E+00  0.00000000E+00
  0.00000000E+00  0.00000000E+00  0.00000000E+00
  0.00000000E+00  0.00000000E+00  0.00000000E+00
  0.00000000E+00  0.00000000E+00  0.00000000E+00
  0.00000000E+00  0.00000000E+00  0.00000000E+00
  0.00000000E+00  0.00000000E+00  0.00000000E+00
  0.00000000E+00  0.00000000E+00  0.00000000E+00
  0.00000000E+00  0.00000000E+00  0.00000000E+00
  0.00000000E+00  0.00000000E+00  0.00000000E+00
  0.00000000E+00  0.00000000E+00  0.00000000E+00
  0.00000000E+00  0.00000000E+00  0.00000000E+00
  0.00000000E+00  0.00000000E+00  0.00000000E+00
  0.00000000E+00  0.00000000E+00  0.00000000E+00
  0.00000000E+00  0.00000000E+00  0.00000000E+00
  0.00000000E+00  0.00000000E+00  0.00000000E+00
  0.00000000E+00  0.00000000E+00  0.00000000E+00
  0.00000000E+00  0.00000000E+00  0.00000000E+00
  0.00000000E+00  0.00000000E+00  0.00000000E+00
  0.00000000E+00  0.00000000E+00  0.00000000E+00
  0.00000000E+00  0.00000000E+00  0.00000000E+00
  0.00000000E+00  0.00000000E+00  0.00000000E+00
  0.00000000E+00  0.00000000E+00  0.00000000E+00
  0.00000000E+00  0.00000000E+00  0.00000000E+00
  0.00000000E+00  0.00000000E+00  0.00000000E+00
  0.00000000E+00  0.00000000E+00  0.00000000E+00
  0.00000000E+00  0.00000000E+00  0.00000000E+00
  0.00000000E+00  0.00000000E+00  0.00000000E+00
  0.00000000E+00  0.00000000E+00  0.00000000E+00
  0.00000000E+00  0.00000000E+00  0.00000000E+00
  0.00000000E+00  0.00000000E+00  0.00000000E+00
  0.00000000E+00  0.00000000E+00  0.00000000E+00
  0.00000000E+00  0.00000000E+00  0.00000000E+00
  0.00000000E+00  0.00000000E+00  0.00000000E+00
  0.00000000E+00  0.00000000E+00  0.00000000E+00
  0.00000000E+00  0.00000000E+00  0.00000000E+00
  0.00000000E+00  0.00000000E+00  0.00000000E+00
  0.00000000E+00  0.00000000E+00  0.00000000E+00
  0.00000000E+00  0.00000000E+00  0.00000000E+00
  0.00000000E+00  0.00000000E+00  0.00000000E+00
  0.00000000E+00  0.00000000E+00  0.00000000E+00
  0.00000000E+00  0.00000000E+00  0.00000000E+00
  0.00000000E+00  0.00000000E+00  0.00000000E+00
  0.00000000E+00  0.00000000E+00  0.00000000E+00
