H1 Pd64 O3                              
    1.000000000000000     
    11.0798020200000007    0.0000000000000000    0.0000000000000000
     0.0000000000000000   11.0798020200000007    0.0000000000000000
     0.0000000000000000    0.0000000000000000   39.1730157000000005
   H    Pd   O 
     1    64     3
Selective dynamics
Direct
  0.5770240085263431  0.7096681111646407  0.6239108283050651   T   T   T
  0.9999053117151849  0.2499571201789112  0.5252485567407322   T   T   T
  0.0005098559823211  0.5001105913112781  0.5252363910745361   T   T   T
  0.0021839414942657  0.7508590690483330  0.5258428692559615   T   T   T
  0.0018610098833406  0.9991076008817747  0.5258278682622624   T   T   T
  0.2498569127807125  0.2498359501064643  0.5252730373950756   T   T   T
  0.2499700974241547  0.5000800376852912  0.5252468601573961   T   T   T
  0.2507624716743597  0.7517463154684576  0.5260787114560871   T   T   T
  0.2506088464966512  0.9978404913715526  0.5261077969372779   T   T   T
  0.4999234423701044  0.2499680150501455  0.5252210864624184   T   T   T
  0.5002018379249731  0.4997698102294723  0.5248318057822118   T   T   T
  0.4981826208208702  0.7518060399364429  0.5258144420607495   T   T   T
  0.4971900261201944  0.9992333597691626  0.5259010798537138   T   T   T
  0.7501737847250262  0.2498526185917627  0.5250815879131225   T   T   T
  0.7524359408607979  0.4993819928734702  0.5240966734295348   T   T   T
  0.7503396813571153  0.7511231401394393  0.5254186501680728   T   T   T
  0.7492943384091687  0.9992305855942595  0.5255498741909659   T   T   T
  0.1237825066706109  0.1271975283304264  0.5750039683424826   T   T   T
  0.1247331646433259  0.3750474746819679  0.5748167006212767   T   T   T
  0.1241836193049122  0.6228584705132020  0.5750386575552383   T   T   T
  0.1226175800859746  0.8754812861773122  0.5795062310983307   T   T   T
  0.3746633529361569  0.1275072028861920  0.5748286348527367   T   T   T
  0.3765684483211756  0.3752639050370329  0.5747909882916333   T   T   T
  0.3765768934931516  0.6217494388642453  0.5746559746501511   T   T   T
  0.3687407889478749  0.8721491800776572  0.5867164180306529   T   T   T
  0.6254110728610630  0.1280905864475599  0.5745759702754245   T   T   T
  0.6263808153452575  0.3769275346520851  0.5745717332778127   T   T   T
  0.6269838816684982  0.6227217622595929  0.5737024096963407   T   T   T
  0.6293491954433126  0.8778364099352365  0.5754399017903904   T   T   T
  0.8741575402623887  0.1268165740559305  0.5748669394755301   T   T   T
  0.8744657740368347  0.3755430812995035  0.5747883511447960   T   T   T
  0.8738815917810790  0.6232634947113589  0.5747782398763358   T   T   T
  0.8776258198594433  0.8751783571309889  0.5751200708310243   T   T   T
  0.2500000000000000  0.0000000000000000  0.4249999999999972   F   F   F
  0.2500000000000000  0.2500000000000000  0.4249999999999972   F   F   F
  0.2500000000000000  0.5000000000000000  0.4249999999999972   F   F   F
  0.2500000000000000  0.7500000000000000  0.4249999999999972   F   F   F
  0.5000000000000000  0.0000000000000000  0.4249999999999972   F   F   F
  0.5000000000000000  0.2500000000000000  0.4249999999999972   F   F   F
  0.5000000000000000  0.5000000000000000  0.4249999999999972   F   F   F
  0.5000000000000000  0.7500000000000000  0.4249999999999972   F   F   F
  0.7500000000000000  0.0000000000000000  0.4249999999999972   F   F   F
  0.7500000000000000  0.2500000000000000  0.4249999999999972   F   F   F
  0.7500000000000000  0.5000000000000000  0.4249999999999972   F   F   F
  0.7500000000000000  0.7500000000000000  0.4249999999999972   F   F   F
  0.0000000000000000  0.0000000000000000  0.4249999999999972   F   F   F
  0.0000000000000000  0.2500000000000000  0.4249999999999972   F   F   F
  0.0000000000000000  0.5000000000000000  0.4249999999999972   F   F   F
  0.0000000000000000  0.7500000000000000  0.4249999999999972   F   F   F
  0.1250000000000000  0.1250000000000000  0.4750000000000014   F   F   F
  0.1250000000000000  0.3750000000000000  0.4750000000000014   F   F   F
  0.1250000000000000  0.6250000000000000  0.4750000000000014   F   F   F
  0.1250000000000000  0.8750000000000000  0.4750000000000014   F   F   F
  0.3750000000000000  0.1250000000000000  0.4750000000000014   F   F   F
  0.3750000000000000  0.3750000000000000  0.4750000000000014   F   F   F
  0.3750000000000000  0.6250000000000000  0.4750000000000014   F   F   F
  0.3750000000000000  0.8750000000000000  0.4750000000000014   F   F   F
  0.6250000000000000  0.1250000000000000  0.4750000000000014   F   F   F
  0.6250000000000000  0.3750000000000000  0.4750000000000014   F   F   F
  0.6250000000000000  0.6250000000000000  0.4750000000000014   F   F   F
  0.6250000000000000  0.8750000000000000  0.4750000000000014   F   F   F
  0.8750000000000000  0.1250000000000000  0.4750000000000014   F   F   F
  0.8750000000000000  0.3750000000000000  0.4750000000000014   F   F   F
  0.8750000000000000  0.6250000000000000  0.4750000000000014   F   F   F
  0.8750000000000000  0.8750000000000000  0.4750000000000014   F   F   F
  0.2313575999755309  0.8730029355959283  0.6177499507225026   T   T   T
  0.5205271205759439  0.8747441192215444  0.6180542400764901   T   T   T
  0.5534259672765000  0.7747096128730999  0.6406159713094399   T   T   T
 
  0.00000000E+00  0.00000000E+00  0.00000000E+00
  0.00000000E+00  0.00000000E+00  0.00000000E+00
  0.00000000E+00  0.00000000E+00  0.00000000E+00
  0.00000000E+00  0.00000000E+00  0.00000000E+00
  0.00000000E+00  0.00000000E+00  0.00000000E+00
  0.00000000E+00  0.00000000E+00  0.00000000E+00
  0.00000000E+00  0.00000000E+00  0.00000000E+00
  0.00000000E+00  0.00000000E+00  0.00000000E+00
  0.00000000E+00  0.00000000E+00  0.00000000E+00
  0.00000000E+00  0.00000000E+00  0.00000000E+00
  0.00000000E+00  0.00000000E+00  0.00000000E+00
  0.00000000E+00  0.00000000E+00  0.00000000E+00
  0.00000000E+00  0.00000000E+00  0.00000000E+00
  0.00000000E+00  0.00000000E+00  0.00000000E+00
  0.00000000E+00  0.00000000E+00  0.00000000E+00
  0.00000000E+00  0.00000000E+00  0.00000000E+00
  0.00000000E+00  0.00000000E+00  0.00000000E+00
  0.00000000E+00  0.00000000E+00  0.00000000E+00
  0.00000000E+00  0.00000000E+00  0.00000000E+00
  0.00000000E+00  0.00000000E+00  0.00000000E+00
  0.00000000E+00  0.00000000E+00  0.00000000E+00
  0.00000000E+00  0.00000000E+00  0.00000000E+00
  0.00000000E+00  0.00000000E+00  0.00000000E+00
  0.00000000E+00  0.00000000E+00  0.00000000E+00
  0.00000000E+00  0.00000000E+00  0.00000000E+00
  0.00000000E+00  0.00000000E+00  0.00000000E+00
  0.00000000E+00  0.00000000E+00  0.00000000E+00
  0.00000000E+00  0.00000000E+00  0.00000000E+00
  0.00000000E+00  0.00000000E+00  0.00000000E+00
  0.00000000E+00  0.00000000E+00  0.00000000E+00
  0.00000000E+00  0.00000000E+00  0.00000000E+00
  0.00000000E+00  0.00000000E+00  0.00000000E+00
  0.00000000E+00  0.00000000E+00  0.00000000E+00
  0.00000000E+00  0.00000000E+00  0.00000000E+00
  0.00000000E+00  0.00000000E+00  0.00000000E+00
  0.00000000E+00  0.00000000E+00  0.00000000E+00
  0.00000000E+00  0.00000000E+00  0.00000000E+00
  0.00000000E+00  0.00000000E+00  0.00000000E+00
  0.00000000E+00  0.00000000E+00  0.00000000E+00
  0.00000000E+00  0.00000000E+00  0.00000000E+00
  0.00000000E+00  0.00000000E+00  0.00000000E+00
  0.00000000E+00  0.00000000E+00  0.00000000E+00
  0.00000000E+00  0.00000000E+00  0.00000000E+00
  0.00000000E+00  0.00000000E+00  0.00000000E+00
  0.00000000E+00  0.00000000E+00  0.00000000E+00
  0.00000000E+00  0.00000000E+00  0.00000000E+00
  0.00000000E+00  0.00000000E+00  0.00000000E+00
  0.00000000E+00  0.00000000E+00  0.00000000E+00
  0.00000000E+00  0.00000000E+00  0.00000000E+00
  0.00000000E+00  0.00000000E+00  0.00000000E+00
  0.00000000E+00  0.00000000E+00  0.00000000E+00
  0.00000000E+00  0.00000000E+00  0.00000000E+00
  0.00000000E+00  0.00000000E+00  0.00000000E+00
  0.00000000E+00  0.00000000E+00  0.00000000E+00
  0.00000000E+00  0.00000000E+00  0.00000000E+00
  0.00000000E+00  0.00000000E+00  0.00000000E+00
  0.00000000E+00  0.00000000E+00  0.00000000E+00
  0.00000000E+00  0.00000000E+00  0.00000000E+00
  0.00000000E+00  0.00000000E+00  0.00000000E+00
  0.00000000E+00  0.00000000E+00  0.00000000E+00
  0.00000000E+00  0.00000000E+00  0.00000000E+00
  0.00000000E+00  0.00000000E+00  0.00000000E+00
  0.00000000E+00  0.00000000E+00  0.00000000E+00
  0.00000000E+00  0.00000000E+00  0.00000000E+00
  0.00000000E+00  0.00000000E+00  0.00000000E+00
  0.00000000E+00  0.00000000E+00  0.00000000E+00
  0.00000000E+00  0.00000000E+00  0.00000000E+00
  0.00000000E+00  0.00000000E+00  0.00000000E+00
