H4 C1 O1
1.0
10.000000 0.000000 0.000000
0.000000 10.000000 0.000000
0.000000 0.000000 10.000000
H C O
4 1 1
Cartesian
  3.9004866404867933  5.6725162913140705  5.1144542013756720
  6.2996642416637263  4.4986120452753680  4.1977921620121981
  5.1935511165724089  5.0708928139796026  6.1875465238993437
  5.4903681272333840  6.4824441555755694  5.1567311480762372
  4.9789171616976402  5.5127875154005190  5.2062564741449728
  5.3459727123460423  4.6549171784548768  4.1372194904915851
