ALGO = Fast
AMIN = 0.01
EDIFF = 0.0001
EDIFFG = -0.05
ENCUT = 500
GGA = PE
IBRION = 2
ISIF = 0
ISMEAR = 0
ISPIN = 2
ISTART = 1
ISYM = 0
LASPH = True
LCHARG = False
LDAU = True
LDAUJ = 0 0 0 0 0
LDAUL = 0 0 2 0 0
LDAUPRINT = 0
LDAUTYPE = 2
LDAUU = 0 0 3.32 0 0
LMAXMIX = 4
LORBIT = 11
LREAL = True
LVTOT = False
LWAVE = True
MAGMOM = 1*0.022 1*0.021 1*0.004 3*0.018 2*0.019 2*0.02 1*0.006 1*0.007 1*0.0 5*0.006 2*0.007 1*-2.103 1*2.465 1*2.417 1*-2.31 1*2.63 2*2.634 1*2.662 1*2.528 1*2.512 1*2.48 1*2.494 1*2.445 1*2.441 1*2.534 1*2.536 1*2.545 1*2.548 2*2.556 1*2.507 1*2.508 1*2.396 1*2.395 1*-0.002 1*0.062 1*0.036 1*0.098 1*0.081 1*-0.112 1*0.24 1*-0.183 1*0.258 1*-0.268 1*0.255 1*0.257 1*-0.217 1*0.089 1*0.112 1*0.162 1*0.076 1*0.226 1*0.224 1*0.225 1*0.249 1*0.279 1*0.251 1*0.214 1*0.218 1*0.131 1*0.132 1*0.123 1*0.119 1*0.277 1*0.278 1*0.275 1*0.272 1*0.269 1*0.274 2*0.273 1*0.078 1*0.076 1*0.082 1*0.09 2*0.26 1*0.282 1*0.277 1*0.274 1*0.275 1*0.259 1*0.262 1*0.044 1*0.04 2*0.271 1*0.258 1*0.261 2*0.271 1*0.262 1*0.261 1*0.036 1*0.035 2*0.301 2*0.286 2*0.329 1*0.257 1*0.258 1*0.255
NCORE = 4
NELM = 80
NELMIN = 8
NSW = 300
PREC = Accurate
SIGMA = 0.2
SYMPREC = 1e-10
