Ba10 Sr10 Co24 H1 O69
1.0
11.105715 0.000000 0.000000
-0.004793 5.552855 0.000000
0.000000 0.000000 87.290226
Ba Sr Co H O
10 10 24 1 69
direct
0.999412 0.998778 0.555081 Ba
0.500052 0.998507 0.555075 Ba
0.250761 0.499450 0.601128 Ba
0.752495 0.500109 0.600905 Ba
0.000211 0.998626 0.463710 Ba
0.500216 0.998552 0.463711 Ba
0.249420 0.495792 0.509462 Ba
0.749350 0.495920 0.509472 Ba
0.249517 0.500537 0.416838 Ba
0.749507 0.500428 0.416842 Ba
0.249593 0.491466 0.555299 Sr
0.749651 0.492185 0.555283 Sr
0.499810 0.006035 0.600983 Sr
0.000518 0.007119 0.601010 Sr
0.252623 0.499307 0.463319 Sr
0.750997 0.495679 0.463440 Sr
0.499703 0.992056 0.508936 Sr
0.999746 0.992062 0.508925 Sr
0.499967 0.999969 0.417557 Sr
0.999971 0.999984 0.417555 Sr
0.250367 0.005645 0.622663 Co
0.748289 0.007784 0.621648 Co
0.001554 0.510220 0.621853 Co
0.501520 0.511110 0.621880 Co
0.999553 0.508747 0.578074 Co
0.499514 0.508617 0.578017 Co
0.250099 0.000435 0.577391 Co
0.749725 0.000814 0.577366 Co
0.250296 0.998123 0.532058 Co
0.750040 0.998763 0.532051 Co
0.999745 0.499359 0.532023 Co
0.499731 0.499187 0.532026 Co
0.999146 0.506065 0.486376 Co
0.499107 0.505926 0.486389 Co
0.249911 0.000043 0.486694 Co
0.749927 0.999830 0.486691 Co
0.249940 0.999443 0.441335 Co
0.750049 0.999291 0.441333 Co
0.999964 0.499631 0.441337 Co
0.500059 0.499607 0.441331 Co
0.998088 0.510558 0.395355 Co
0.498101 0.510624 0.395354 Co
0.251718 0.010772 0.395316 Co
0.751730 0.010761 0.395315 Co
0.164809 0.001388 0.646755 H
-0.000012 0.499888 0.600437 O
0.499993 0.499878 0.600442 O
0.995301 0.499875 0.553180 O
0.504690 0.500003 0.553178 O
0.130961 0.787629 0.622413 O
0.630991 0.787626 0.622901 O
0.381149 0.712475 0.622900 O
0.881050 0.712527 0.622904 O
0.369085 0.212476 0.622887 O
0.869132 0.207987 0.622749 O
0.118784 0.287639 0.622902 O
0.618889 0.287544 0.622904 O
0.249987 0.999913 0.554291 O
0.749986 0.999934 0.554275 O
0.249986 -0.000047 0.599570 O
0.750001 0.999947 0.599565 O
0.377174 0.280201 0.577977 O
0.877198 0.280194 0.577997 O
0.126262 0.224771 0.578114 O
0.626263 0.224761 0.578116 O
0.122840 0.719836 0.577980 O
0.622860 0.719953 0.577984 O
0.373747 0.775120 0.578114 O
0.873744 0.775133 0.578117 O
0.995308 0.499951 0.507863 O
0.495307 0.499952 0.507861 O
-0.000013 0.499933 0.464488 O
0.499989 0.499931 0.464488 O
0.138032 0.774818 0.532796 O
0.638044 0.774854 0.532795 O
0.388026 0.724967 0.532792 O
0.888032 0.724993 0.532788 O
0.361934 0.225037 0.532793 O
0.861921 0.225006 0.532791 O
0.111946 0.274951 0.532790 O
0.611955 0.274891 0.532786 O
0.249999 0.987514 0.463527 O
0.749996 0.987516 0.463527 O
0.249986 0.987569 0.508847 O
0.749985 0.987572 0.508845 O
0.392793 0.262452 0.486955 O
0.892791 0.262452 0.486955 O
0.142854 0.237382 0.486475 O
0.642853 0.237383 0.486475 O
0.107210 0.737545 0.486957 O
0.607210 0.737545 0.486957 O
0.357176 0.762493 0.486474 O
0.857175 0.762495 0.486474 O
-0.000012 0.499943 0.419164 O
0.499987 0.499941 0.419164 O
0.138003 0.774927 0.440625 O
0.638003 0.774927 0.440625 O
0.385772 0.724954 0.440635 O
0.885771 0.724957 0.440635 O
0.361958 0.224974 0.440631 O
0.861955 0.224970 0.440630 O
0.114236 0.274928 0.440638 O
0.614237 0.274924 0.440638 O
0.249980 0.999939 0.416766 O
0.749979 0.999940 0.416765 O
0.388166 0.275113 0.393763 O
0.888178 0.275112 0.393763 O
0.138077 0.224813 0.393752 O
0.638072 0.224804 0.393753 O
0.111832 0.724923 0.393761 O
0.611821 0.724920 0.393761 O
0.361914 0.775210 0.393754 O
0.861911 0.775211 0.393754 O
0.250041 0.012379 0.643234 O
