H1 Ir32 O73                             
   1.00000000000000     
     9.0898780000000006    0.0000000000000000    0.0000000000000000
     0.0000000000000000   11.1045669999999994   -0.0793000000000000
     0.0000000000000000    0.0000000000000000   31.3300599999999996
   H    Ir   O 
     1    32    73
Direct
  0.4292493758743220  0.8819906809665290  0.7343128353239765
  0.2633204047566323  0.3288847012529312  0.3750872903011593
  0.2635199110079955  0.8287779766444746  0.3750826873614557
  0.7635103926397621  0.3288198821457406  0.3750869084652444
  0.7635168938120540  0.8287773123121456  0.3750809155055601
  0.9888345051812778  0.0788958192749792  0.3758207939338662
  0.9888610382301599  0.5788836265206976  0.3758084578899368
  0.4880979275841356  0.0790945211812654  0.3757633262032324
  0.4888767269161648  0.5788926748145315  0.3758195830311810
  0.2482889614841893  0.0021145860594127  0.4574178912893715
  0.2479388943035638  0.5022824409999003  0.4573110750296004
  0.7480411059447548  0.0021866823782979  0.4573422213351178
  0.7483209084118965  0.5021372534170848  0.4574490591404472
  0.0018478959583385  0.2529743233666963  0.4577591789384500
  0.0018099978626264  0.7529803731006797  0.4577727490572255
  0.5018276885165792  0.2529758263179290  0.4577602738016032
  0.5017793953637505  0.7529703207048720  0.4577677467274714
  0.2510490923096094  0.1671072855871362  0.5410314114422959
  0.2507553392428882  0.6673544880424053  0.5411415876133293
  0.7509784784621975  0.1671859333004456  0.5410517369374488
  0.7509705768531207  0.6670502320128228  0.5410311185603395
  0.0014229411225562  0.4167148413157298  0.5422469243628214
 -0.0008321347267568  0.9186711255057384  0.5420187762167163
  0.5012275768696314  0.4167922996073767  0.5422191017128074
  0.5012604794630782  0.9166963302668523  0.5423298470372481
  0.2482280353183538  0.3343405006702786  0.6275724284217487
  0.2459176874566089  0.8357306966948503  0.6258145790659730
  0.7481895212686863  0.3343524749025921  0.6276185983232905
  0.7485309057252894  0.8344368332369846  0.6274785685515543
  0.0060102618977172  0.0850089709074585  0.6270668090935188
  0.0057841996457499  0.5854153437336246  0.6270595980576040
  0.5058208644968815  0.0850902120801021  0.6269912520993884
  0.5056919632888084  0.5849820505526545  0.6269986650921340
  0.3466369740581876  0.1881389565289808  0.3510923569620272
  0.3500339055858132  0.6888726189174856  0.3510723593275865
  0.8500139611131480  0.1888978720380292  0.3510770235216687
  0.8500227857386310  0.6888923335534292  0.3510765275686626
  0.0956778341968810  0.2318692298347592  0.3993403836824151
  0.0957156457587595  0.7318581490578673  0.3993387610752179
  0.5956686531655757  0.2318771503340111  0.3993318712287355
  0.5957120376522984  0.7318591407616677  0.3993384684384331
  0.1530740525479186  0.4817531101668855  0.3993199220840936
  0.1530423890407500  0.9817449081951445  0.3993209518916438
  0.6530458458808757  0.4817475097388380  0.3993221151666408
  0.6529955214689857  0.9817684235228253  0.3993164456431087
  0.4033934661034736  0.4382277819456615  0.3510419565568498
  0.4033872988848376  0.9382163125145634  0.3510359262246750
  0.9034049757634949  0.4382194067492163  0.3510400170150056
  0.9034031814077369  0.9382212706241398  0.3510400107064996
  0.3426531012561087  0.3531879242540992  0.4339959945344468
  0.3427025226523421  0.8531889565786215  0.4339970616063557
  0.8426998950762778  0.3531905898459254  0.4339977880332697
  0.8426606816039591  0.8531874529024526  0.4339967843117788
  0.0958301237511335  0.4005329481479407  0.4845191227562894
  0.0958277797422213  0.9005483000431990  0.4845236574128290
  0.5958316201051670  0.4005366732489441  0.4845216715075305
  0.5958171273459066  0.9005302392948108  0.4845239927801493
  0.1531415131422448  0.1490456592184831  0.4840025871123616
  0.1530875473732497  0.6490734233945431  0.4840019665256697
  0.6531260235912534  0.1490548650531045  0.4840010798203974
  0.6531473990399522  0.6490496919264467  0.4840046784441207
  0.4046086759074931  0.1017215265320203  0.4339957553195816
  0.4046048891330637  0.6017067807257453  0.4339912716376630
  0.9046120858528275  0.1017174988824307  0.4339940031896749
  0.9046114074590234  0.6017187732400167  0.4339957984897402
  0.3468080840505404  0.0180513338714697  0.5159706155277491
  0.3459292514594327  0.5184541193351151  0.5155444424847559
  0.8466377263762179  0.0181006842418120  0.5159337347065459
  0.8468185025486797  0.5180354091800440  0.5159705149846916
  0.0959783353037387  0.0660457097683167  0.5667051784425177
  0.0959887432216989  0.5659534240169733  0.5666939452006388
  0.5959848510319933  0.0659595942371153  0.5666959897695286
  0.5959899880468925  0.5659306700783960  0.5666902613016929
  0.1572518010244739  0.3136384396558465  0.5660494008462642
  0.1534857873923265  0.8159022312378261  0.5667300710280914
  0.6572025535776732  0.3136469186457216  0.5660490926623069
  0.6572760561630487  0.8136402924956145  0.5660473829286539
  0.4045941177466705  0.2679839175273625  0.5159739406691096
  0.4045591434293718  0.7679997616904208  0.5159793825131525
  0.9046008146876848  0.2679827097891640  0.5159745162437510
  0.9045518620558195  0.7680333377876256  0.5159718989260257
  0.3449348109889534  0.1868780406384093  0.6001667812123951
  0.3449228607897197  0.6869589699955038  0.6001003800060567
  0.8449332573084885  0.1868772570757693  0.6001677918208623
  0.8449342217108330  0.6868894759761579  0.6001657335783854
  0.0961580268753656  0.2322916004050893  0.6492142631982105
  0.0999667307887755  0.7328063483726860  0.6486586919251959
  0.5960651786910531  0.2323125306392907  0.6492387641890889
  0.5972663577820695  0.7323513707781423  0.6487323449407707
  0.1501641965207739  0.4832894626725908  0.6477513711894072
  0.1521517098443053  0.9817312160960117  0.6475257950165695
  0.6501699843848038  0.4832840766008360  0.6477505999607175
  0.6501854122492097  0.9832943789034860  0.6477500073406999
  0.4023681522724214  0.4367227720639985  0.6001160334244952
  0.4030257489654728  0.9369202409177094  0.6004892620606999
  0.9023712066968830  0.4367365675040812  0.6001340992033470
  0.9023103598804503  0.9368908459499713  0.6001297035621282
  0.3432977566918670  0.3490259486308429  0.6784571092431637
  0.8433096593882735  0.3490228272978046  0.6784564883131872
  0.8433775286720958  0.8490096730352124  0.6784530782763011
  0.9068919343088656  0.0934803662067323  0.6761237247874000
  0.9068903806845297  0.5935328420699304  0.6761199133309574
  0.4069480842464501  0.0947485814876866  0.6762027254025942
  0.4068648014181911  0.5934996864625930  0.6761178751471620
  0.3244596508427839  0.8270639203030686  0.6869034826609475
  0.4518756359389124  0.8865763487100445  0.7034643054755293
 
  0.00000000E+00  0.00000000E+00  0.00000000E+00
  0.00000000E+00  0.00000000E+00  0.00000000E+00
  0.00000000E+00  0.00000000E+00  0.00000000E+00
  0.00000000E+00  0.00000000E+00  0.00000000E+00
  0.00000000E+00  0.00000000E+00  0.00000000E+00
  0.00000000E+00  0.00000000E+00  0.00000000E+00
  0.00000000E+00  0.00000000E+00  0.00000000E+00
  0.00000000E+00  0.00000000E+00  0.00000000E+00
  0.00000000E+00  0.00000000E+00  0.00000000E+00
  0.00000000E+00  0.00000000E+00  0.00000000E+00
  0.00000000E+00  0.00000000E+00  0.00000000E+00
  0.00000000E+00  0.00000000E+00  0.00000000E+00
  0.00000000E+00  0.00000000E+00  0.00000000E+00
  0.00000000E+00  0.00000000E+00  0.00000000E+00
  0.00000000E+00  0.00000000E+00  0.00000000E+00
  0.00000000E+00  0.00000000E+00  0.00000000E+00
  0.00000000E+00  0.00000000E+00  0.00000000E+00
  0.00000000E+00  0.00000000E+00  0.00000000E+00
  0.00000000E+00  0.00000000E+00  0.00000000E+00
  0.00000000E+00  0.00000000E+00  0.00000000E+00
  0.00000000E+00  0.00000000E+00  0.00000000E+00
  0.00000000E+00  0.00000000E+00  0.00000000E+00
  0.00000000E+00  0.00000000E+00  0.00000000E+00
  0.00000000E+00  0.00000000E+00  0.00000000E+00
  0.00000000E+00  0.00000000E+00  0.00000000E+00
  0.00000000E+00  0.00000000E+00  0.00000000E+00
  0.00000000E+00  0.00000000E+00  0.00000000E+00
  0.00000000E+00  0.00000000E+00  0.00000000E+00
  0.00000000E+00  0.00000000E+00  0.00000000E+00
  0.00000000E+00  0.00000000E+00  0.00000000E+00
  0.00000000E+00  0.00000000E+00  0.00000000E+00
  0.00000000E+00  0.00000000E+00  0.00000000E+00
  0.00000000E+00  0.00000000E+00  0.00000000E+00
  0.00000000E+00  0.00000000E+00  0.00000000E+00
  0.00000000E+00  0.00000000E+00  0.00000000E+00
  0.00000000E+00  0.00000000E+00  0.00000000E+00
  0.00000000E+00  0.00000000E+00  0.00000000E+00
  0.00000000E+00  0.00000000E+00  0.00000000E+00
  0.00000000E+00  0.00000000E+00  0.00000000E+00
  0.00000000E+00  0.00000000E+00  0.00000000E+00
  0.00000000E+00  0.00000000E+00  0.00000000E+00
  0.00000000E+00  0.00000000E+00  0.00000000E+00
  0.00000000E+00  0.00000000E+00  0.00000000E+00
  0.00000000E+00  0.00000000E+00  0.00000000E+00
  0.00000000E+00  0.00000000E+00  0.00000000E+00
  0.00000000E+00  0.00000000E+00  0.00000000E+00
  0.00000000E+00  0.00000000E+00  0.00000000E+00
  0.00000000E+00  0.00000000E+00  0.00000000E+00
  0.00000000E+00  0.00000000E+00  0.00000000E+00
  0.00000000E+00  0.00000000E+00  0.00000000E+00
  0.00000000E+00  0.00000000E+00  0.00000000E+00
  0.00000000E+00  0.00000000E+00  0.00000000E+00
  0.00000000E+00  0.00000000E+00  0.00000000E+00
  0.00000000E+00  0.00000000E+00  0.00000000E+00
  0.00000000E+00  0.00000000E+00  0.00000000E+00
  0.00000000E+00  0.00000000E+00  0.00000000E+00
  0.00000000E+00  0.00000000E+00  0.00000000E+00
  0.00000000E+00  0.00000000E+00  0.00000000E+00
  0.00000000E+00  0.00000000E+00  0.00000000E+00
  0.00000000E+00  0.00000000E+00  0.00000000E+00
  0.00000000E+00  0.00000000E+00  0.00000000E+00
  0.00000000E+00  0.00000000E+00  0.00000000E+00
  0.00000000E+00  0.00000000E+00  0.00000000E+00
  0.00000000E+00  0.00000000E+00  0.00000000E+00
  0.00000000E+00  0.00000000E+00  0.00000000E+00
  0.00000000E+00  0.00000000E+00  0.00000000E+00
  0.00000000E+00  0.00000000E+00  0.00000000E+00
  0.00000000E+00  0.00000000E+00  0.00000000E+00
  0.00000000E+00  0.00000000E+00  0.00000000E+00
  0.00000000E+00  0.00000000E+00  0.00000000E+00
  0.00000000E+00  0.00000000E+00  0.00000000E+00
  0.00000000E+00  0.00000000E+00  0.00000000E+00
  0.00000000E+00  0.00000000E+00  0.00000000E+00
  0.00000000E+00  0.00000000E+00  0.00000000E+00
  0.00000000E+00  0.00000000E+00  0.00000000E+00
  0.00000000E+00  0.00000000E+00  0.00000000E+00
  0.00000000E+00  0.00000000E+00  0.00000000E+00
  0.00000000E+00  0.00000000E+00  0.00000000E+00
  0.00000000E+00  0.00000000E+00  0.00000000E+00
  0.00000000E+00  0.00000000E+00  0.00000000E+00
  0.00000000E+00  0.00000000E+00  0.00000000E+00
  0.00000000E+00  0.00000000E+00  0.00000000E+00
  0.00000000E+00  0.00000000E+00  0.00000000E+00
  0.00000000E+00  0.00000000E+00  0.00000000E+00
  0.00000000E+00  0.00000000E+00  0.00000000E+00
  0.00000000E+00  0.00000000E+00  0.00000000E+00
  0.00000000E+00  0.00000000E+00  0.00000000E+00
  0.00000000E+00  0.00000000E+00  0.00000000E+00
  0.00000000E+00  0.00000000E+00  0.00000000E+00
  0.00000000E+00  0.00000000E+00  0.00000000E+00
  0.00000000E+00  0.00000000E+00  0.00000000E+00
  0.00000000E+00  0.00000000E+00  0.00000000E+00
  0.00000000E+00  0.00000000E+00  0.00000000E+00
  0.00000000E+00  0.00000000E+00  0.00000000E+00
  0.00000000E+00  0.00000000E+00  0.00000000E+00
  0.00000000E+00  0.00000000E+00  0.00000000E+00
  0.00000000E+00  0.00000000E+00  0.00000000E+00
  0.00000000E+00  0.00000000E+00  0.00000000E+00
  0.00000000E+00  0.00000000E+00  0.00000000E+00
  0.00000000E+00  0.00000000E+00  0.00000000E+00
  0.00000000E+00  0.00000000E+00  0.00000000E+00
  0.00000000E+00  0.00000000E+00  0.00000000E+00
  0.00000000E+00  0.00000000E+00  0.00000000E+00
  0.00000000E+00  0.00000000E+00  0.00000000E+00
  0.00000000E+00  0.00000000E+00  0.00000000E+00
  0.00000000E+00  0.00000000E+00  0.00000000E+00
