H1 Ir32 O73                             
   1.00000000000000     
     9.0898780000000006    0.0000000000000000    0.0000000000000000
     0.0000000000000000   11.1045669999999994   -0.0793000000000000
     0.0000000000000000    0.0000000000000000   31.3300599999999996
   H    Ir   O 
     1    32    73
Direct
  0.3237758967974285  0.9106392334738278  0.7356256960605562
  0.2630968328935160  0.3288013844574375  0.3750841320841028
  0.2632003314812266  0.8288754326081579  0.3751026648665130
  0.7631634964581611  0.3289319934528589  0.3751061291615146
  0.7631540557265887  0.8289117456847144  0.3751038503687714
  0.9878329876559331  0.0791678753636344  0.3757505129616612
  0.9878099473559764  0.5791782391689788  0.3757425718651042
  0.4878601993978626  0.0791574727852591  0.3757533980476130
  0.4879510935323848  0.5788233146540764  0.3754837046120072
  0.2479676705510457  0.0020408765088633  0.4574543629063759
  0.2478753764449695  0.5022942217996708  0.4572228914174850
  0.7479400840425859  0.0020411391012271  0.4574410231196497
  0.7479175418171050  0.5020508980562713  0.4574849199255104
  0.0016951704799130  0.2529752924741294  0.4577801289378622
  0.0016884363392355  0.7529714339619854  0.4577884921145676
  0.5016735164582451  0.2529727968010976  0.4577865281496536
  0.5017349474024931  0.7529339389418648  0.4577345981002579
  0.2508933267430576  0.1670416846535507  0.5410444691545112
  0.2511925635153359  0.6665443050740389  0.5411724583263609
  0.7508317220242443  0.1671739497212414  0.5410325265926013
  0.7508530812636189  0.6670442524172462  0.5410518883941681
  0.0010638359940068  0.4167026128991319  0.5422927402404008
  0.0004570424009736  0.9168832200777487  0.5423177338342866
  0.5007816224505013  0.4168325559248707  0.5422620930980805
  0.5008248760881652  0.9166666176185182  0.5423464360406959
  0.2479625060377720  0.3341850014554585  0.6275922321648743
  0.2417221615410226  0.8359478565897444  0.6262648266802558
  0.7476531599979376  0.3339367574779706  0.6277654874635366
  0.7479387640641317  0.8341098213190252  0.6275825142943980
  0.0054710816360415  0.0851738377204182  0.6270354429372548
  0.0054476986482840  0.5849890414009312  0.6270278613611032
  0.5056125907256042  0.0846141724301236  0.6269460649613866
  0.5053852119654927  0.5850565504025487  0.6269782256374957
  0.3465611319666539  0.1881322382091900  0.3510816617311900
  0.3464815968948688  0.6881507149223786  0.3510639200208058
  0.8465576988141845  0.1881455508138121  0.3510816162420227
  0.8465094285897673  0.6881547941321230  0.3510741180666765
  0.0956092774884486  0.2318774816668561  0.3993402223293100
  0.0956113802198551  0.7318794550418534  0.3993385032129979
  0.5956128318400838  0.2318796611721798  0.3993384761688207
  0.5956205650842579  0.7318760879039209  0.3993335493404581
  0.1529135321033004  0.4817820179867204  0.3993174920331760
  0.1529279330308912  0.9817835067863468  0.3993255628757224
  0.6529201366639504  0.4817778985632372  0.3993216450836465
  0.6529252959510851  0.9817853208529002  0.3993257667740194
  0.4027679229541651  0.4369457714199353  0.3504993769278964
  0.4033363858581094  0.9382207002233178  0.3510325092298667
  0.9033392575354346  0.4382144288339373  0.3510292724816017
  0.9033348069482563  0.9382253644691274  0.3510327821094799
  0.3426107520612227  0.3531870071122772  0.4339955519979805
  0.3426286263313817  0.8531885280276145  0.4339980890921766
  0.8426213822730337  0.3531867064804066  0.4339985019452927
  0.8426202604862668  0.8531880771610296  0.4339982445910395
  0.0958160705673139  0.4005355909913758  0.4845229798584307
  0.0957989311206551  0.9005291811496343  0.4845277514769698
  0.5957965190816762  0.4005315239913860  0.4845283753301469
  0.5957925549065319  0.9005248694386812  0.4845292995474527
  0.1530912270441209  0.1490419205858341  0.4840058849252716
  0.1530090785699699  0.6490197028477835  0.4840047631726832
  0.6530419395720566  0.1490231385708258  0.4840070842750499
  0.6530679273072026  0.6490280386552740  0.4840076471295312
  0.4045686286243543  0.1017169463931449  0.4339999840709006
  0.4041655648156340  0.6020775154996590  0.4334604044917321
  0.9045709039829990  0.1017181295942301  0.4339998240910973
  0.9045689795543768  0.6017180630096134  0.4340001686867738
  0.3467545424649904  0.0180473103333481  0.5159744626780743
  0.3458878799892465  0.5183669463572821  0.5155434339767242
  0.8467577616486468  0.0180404869970673  0.5159713755804755
  0.8467650780142613  0.5180372827813063  0.5159747901335846
  0.0959689764564869  0.0659366820709002  0.5666971173501423
  0.0959708208625295  0.5659356717877431  0.5666965908205355
  0.5959809663021040  0.0660188136352887  0.5667085853342773
  0.5959560871353694  0.5659515582471815  0.5666938980777704
  0.1570254205928305  0.3136326734400178  0.5660516299079977
  0.1569431953779806  0.8136371030591788  0.5660555330120883
  0.6569710161868563  0.3136367434872953  0.5660526513696398
  0.6570160227542950  0.8136304774234870  0.5660520609554296
  0.4045470275853645  0.2679848905890139  0.5159769344211338
  0.4045498959026339  0.7679667273284778  0.5159786907581891
  0.9045508727561915  0.2679830302969994  0.5159771577288728
  0.9045432047252988  0.7679784775037093  0.5159784872998953
  0.3449311281602431  0.1868320713968727  0.6001590726537657
  0.3448395313420753  0.6869747067446194  0.6002072108930916
  0.8448758394068273  0.1869187256137541  0.6001664290161388
  0.8448610517740489  0.6869634770696359  0.6002069118798407
  0.0960385210998241  0.2322852779945759  0.6492420701208054
  0.0960792671992323  0.7322741400572411  0.6492665618582956
  0.5959672591717365  0.2323091984345552  0.6492645816674745
  0.5960605017712763  0.7322846576636447  0.6492362920041514
  0.1501643901710360  0.4832899666568451  0.6477551165390694
  0.1501452788765536  0.9832549625149857  0.6477234515921372
  0.6501616614071623  0.4832886359027930  0.6477554774295238
  0.6501697664454849  0.9832855275648159  0.6477550093606103
  0.4023443907958695  0.4367241391206742  0.6001297666192622
  0.4023391793991128  0.9365802701591567  0.6002245456601971
  0.9023485045377144  0.4367124615404580  0.6001390542724454
  0.9023267831590984  0.9368211292819680  0.6001612896062842
  0.3431837721557411  0.3490473247970639  0.6784598564170964
  0.8432795076910109  0.3490270380485306  0.6784599481910120
  0.8432740914701181  0.8490290312077451  0.6784591420780135
  0.9068467754724501  0.0935025747156629  0.6761306801266357
  0.9068474410204240  0.5935027000279137  0.6761252278950336
  0.4070403534189516  0.0971151377268229  0.6761602414772985
  0.4068527214983697  0.5934925445153485  0.6761220449091945
  0.3463956197389975  0.8449694397718541  0.6812699379601238
  0.2993395358886012  0.9442695271509216  0.7076590451768235
 
  0.00000000E+00  0.00000000E+00  0.00000000E+00
  0.00000000E+00  0.00000000E+00  0.00000000E+00
  0.00000000E+00  0.00000000E+00  0.00000000E+00
  0.00000000E+00  0.00000000E+00  0.00000000E+00
  0.00000000E+00  0.00000000E+00  0.00000000E+00
  0.00000000E+00  0.00000000E+00  0.00000000E+00
  0.00000000E+00  0.00000000E+00  0.00000000E+00
  0.00000000E+00  0.00000000E+00  0.00000000E+00
  0.00000000E+00  0.00000000E+00  0.00000000E+00
  0.00000000E+00  0.00000000E+00  0.00000000E+00
  0.00000000E+00  0.00000000E+00  0.00000000E+00
  0.00000000E+00  0.00000000E+00  0.00000000E+00
  0.00000000E+00  0.00000000E+00  0.00000000E+00
  0.00000000E+00  0.00000000E+00  0.00000000E+00
  0.00000000E+00  0.00000000E+00  0.00000000E+00
  0.00000000E+00  0.00000000E+00  0.00000000E+00
  0.00000000E+00  0.00000000E+00  0.00000000E+00
  0.00000000E+00  0.00000000E+00  0.00000000E+00
  0.00000000E+00  0.00000000E+00  0.00000000E+00
  0.00000000E+00  0.00000000E+00  0.00000000E+00
  0.00000000E+00  0.00000000E+00  0.00000000E+00
  0.00000000E+00  0.00000000E+00  0.00000000E+00
  0.00000000E+00  0.00000000E+00  0.00000000E+00
  0.00000000E+00  0.00000000E+00  0.00000000E+00
  0.00000000E+00  0.00000000E+00  0.00000000E+00
  0.00000000E+00  0.00000000E+00  0.00000000E+00
  0.00000000E+00  0.00000000E+00  0.00000000E+00
  0.00000000E+00  0.00000000E+00  0.00000000E+00
  0.00000000E+00  0.00000000E+00  0.00000000E+00
  0.00000000E+00  0.00000000E+00  0.00000000E+00
  0.00000000E+00  0.00000000E+00  0.00000000E+00
  0.00000000E+00  0.00000000E+00  0.00000000E+00
  0.00000000E+00  0.00000000E+00  0.00000000E+00
  0.00000000E+00  0.00000000E+00  0.00000000E+00
  0.00000000E+00  0.00000000E+00  0.00000000E+00
  0.00000000E+00  0.00000000E+00  0.00000000E+00
  0.00000000E+00  0.00000000E+00  0.00000000E+00
  0.00000000E+00  0.00000000E+00  0.00000000E+00
  0.00000000E+00  0.00000000E+00  0.00000000E+00
  0.00000000E+00  0.00000000E+00  0.00000000E+00
  0.00000000E+00  0.00000000E+00  0.00000000E+00
  0.00000000E+00  0.00000000E+00  0.00000000E+00
  0.00000000E+00  0.00000000E+00  0.00000000E+00
  0.00000000E+00  0.00000000E+00  0.00000000E+00
  0.00000000E+00  0.00000000E+00  0.00000000E+00
  0.00000000E+00  0.00000000E+00  0.00000000E+00
  0.00000000E+00  0.00000000E+00  0.00000000E+00
  0.00000000E+00  0.00000000E+00  0.00000000E+00
  0.00000000E+00  0.00000000E+00  0.00000000E+00
  0.00000000E+00  0.00000000E+00  0.00000000E+00
  0.00000000E+00  0.00000000E+00  0.00000000E+00
  0.00000000E+00  0.00000000E+00  0.00000000E+00
  0.00000000E+00  0.00000000E+00  0.00000000E+00
  0.00000000E+00  0.00000000E+00  0.00000000E+00
  0.00000000E+00  0.00000000E+00  0.00000000E+00
  0.00000000E+00  0.00000000E+00  0.00000000E+00
  0.00000000E+00  0.00000000E+00  0.00000000E+00
  0.00000000E+00  0.00000000E+00  0.00000000E+00
  0.00000000E+00  0.00000000E+00  0.00000000E+00
  0.00000000E+00  0.00000000E+00  0.00000000E+00
  0.00000000E+00  0.00000000E+00  0.00000000E+00
  0.00000000E+00  0.00000000E+00  0.00000000E+00
  0.00000000E+00  0.00000000E+00  0.00000000E+00
  0.00000000E+00  0.00000000E+00  0.00000000E+00
  0.00000000E+00  0.00000000E+00  0.00000000E+00
  0.00000000E+00  0.00000000E+00  0.00000000E+00
  0.00000000E+00  0.00000000E+00  0.00000000E+00
  0.00000000E+00  0.00000000E+00  0.00000000E+00
  0.00000000E+00  0.00000000E+00  0.00000000E+00
  0.00000000E+00  0.00000000E+00  0.00000000E+00
  0.00000000E+00  0.00000000E+00  0.00000000E+00
  0.00000000E+00  0.00000000E+00  0.00000000E+00
  0.00000000E+00  0.00000000E+00  0.00000000E+00
  0.00000000E+00  0.00000000E+00  0.00000000E+00
  0.00000000E+00  0.00000000E+00  0.00000000E+00
  0.00000000E+00  0.00000000E+00  0.00000000E+00
  0.00000000E+00  0.00000000E+00  0.00000000E+00
  0.00000000E+00  0.00000000E+00  0.00000000E+00
  0.00000000E+00  0.00000000E+00  0.00000000E+00
  0.00000000E+00  0.00000000E+00  0.00000000E+00
  0.00000000E+00  0.00000000E+00  0.00000000E+00
  0.00000000E+00  0.00000000E+00  0.00000000E+00
  0.00000000E+00  0.00000000E+00  0.00000000E+00
  0.00000000E+00  0.00000000E+00  0.00000000E+00
  0.00000000E+00  0.00000000E+00  0.00000000E+00
  0.00000000E+00  0.00000000E+00  0.00000000E+00
  0.00000000E+00  0.00000000E+00  0.00000000E+00
  0.00000000E+00  0.00000000E+00  0.00000000E+00
  0.00000000E+00  0.00000000E+00  0.00000000E+00
  0.00000000E+00  0.00000000E+00  0.00000000E+00
  0.00000000E+00  0.00000000E+00  0.00000000E+00
  0.00000000E+00  0.00000000E+00  0.00000000E+00
  0.00000000E+00  0.00000000E+00  0.00000000E+00
  0.00000000E+00  0.00000000E+00  0.00000000E+00
  0.00000000E+00  0.00000000E+00  0.00000000E+00
  0.00000000E+00  0.00000000E+00  0.00000000E+00
  0.00000000E+00  0.00000000E+00  0.00000000E+00
  0.00000000E+00  0.00000000E+00  0.00000000E+00
  0.00000000E+00  0.00000000E+00  0.00000000E+00
  0.00000000E+00  0.00000000E+00  0.00000000E+00
  0.00000000E+00  0.00000000E+00  0.00000000E+00
  0.00000000E+00  0.00000000E+00  0.00000000E+00
  0.00000000E+00  0.00000000E+00  0.00000000E+00
  0.00000000E+00  0.00000000E+00  0.00000000E+00
  0.00000000E+00  0.00000000E+00  0.00000000E+00
  0.00000000E+00  0.00000000E+00  0.00000000E+00
