Ba10 Sr10 Co24 H1 O70                   
    1.000000000000000     
    11.1057150000000000    0.0000000000000000    0.0000000000000000
    -0.0047930000000000    5.5528550000000001    0.0000000000000000
     0.0000000000000000    0.0000000000000000   87.2902260000000041
   Ba   Sr   Co   H    O 
    10    10    24     1    70
Direct
  0.9993279500102822  0.9993141181020991  0.5550662219175532
  0.5002988225866262  0.9989209492328236  0.5550698183957353
  0.2505043114140824  0.5011064050811747  0.6010271981513188
  0.7530204908131654  0.5005810946325128  0.6008616681559434
 -0.0003454259452765  0.9985698863670730  0.4636951754200379
  0.5008609303865525  0.9988651145916597  0.4637100161433659
  0.2496078546676602  0.4949151036721277  0.5094815832398836
  0.7494338181324285  0.4960101982919544  0.5094552958447970
  0.2496283901228446  0.5011355853830934  0.4168351456561384
  0.7497895372521579  0.4987062004721063  0.4168087454187628
  0.2500638948093949  0.4906879577022574  0.5552963335116795
  0.7499237068432888  0.4924222507420601  0.5552642697768705
  0.5002676265466198  0.0067467382935447  0.6009705006076326
  0.0001995231473687  0.0079517761398855  0.6010221947583957
  0.2526532488640787  0.4994629157199344  0.4633187886782326
  0.7504935459099522  0.4910914918470702  0.4634320060136688
  0.4997012483795555  0.9921948269185111  0.5089279341601661
  0.9998160375703473  0.9922792817957805  0.5089004660904761
  0.4998348239003595  0.0001545468105418  0.4175513941693486
  0.0001164894077022  0.0002030896118309  0.4175524337952225
  0.2506263540325841  0.0095820098866701  0.6220411043363301
  0.7479950335550331  0.0098712573293534  0.6217306437417376
  0.0018985544359801  0.5112448724899443  0.6218573758459425
  0.5020490682304808  0.5119201798531757  0.6218480150510941
  0.9996658155270258  0.5087036507901990  0.5779945723095801
  0.4995866904021564  0.5087198674716656  0.5780284387548952
  0.2499644740390951  0.0004664997786836  0.5773686402206692
  0.7499279063429380  0.0008737590078566  0.5773640862012058
  0.2508974070398441  0.9921080955138969  0.5322107498152344
  0.7500971772204525  0.9986987522141084  0.5320476717155671
  0.9997405922955626  0.4989867138474908  0.5320201088181110
  0.4997695527463271  0.4988441396199062  0.5320215473311364
  0.9991905809599532  0.5062151401108660  0.4863693704593580
  0.4991338542116678  0.5060853867351774  0.4863864059319591
  0.2499623876185336 -0.0000265040277490  0.4866940020073794
  0.7499799174862356  0.9995953624412935  0.4866803497312410
  0.2501035818538284  0.9992153896514675  0.4413322035114468
  0.7511702908453537  0.9911738535081159  0.4408025767012201
 -0.0000808836958636  0.4988715705238759  0.4413325821614955
  0.5000080788012402  0.4987452319167761  0.4413225447810570
  0.9981158104431032  0.5106885939505874  0.3953564263107530
  0.4981165175833486  0.5106441354547405  0.3953534289403025
  0.2517789095892574  0.0108877084394733  0.3953150351251288
  0.7517229728230463  0.0106405406083758  0.3952771981841655
  0.3120600392735453  0.0517059418997830  0.6624581832576277
  0.0000029070733134  0.4998878849382415  0.6004359956813075
  0.4999926506370679  0.4998789651913999  0.6004358139176683
  0.9953057832386936  0.4998868602878303  0.5531801349429651
  0.5046938931232109  0.5000109252539734  0.5531800673157835
  0.1308388536381901  0.7920136051931815  0.6227385328823611
  0.6310002146319971  0.7876446083238628  0.6228992247624257
  0.3811348942406999  0.7124412619070967  0.6229021031894537
  0.8810740712825527  0.7125046470716416  0.6229053230657621
  0.3691210759263500  0.2125226324033458  0.6228822547039506
  0.8691060061073451  0.2081476289370327  0.6227529704992957
  0.1188295282357737  0.2876351247715152  0.6229002453172434
  0.6189251265787377  0.2875030314731049  0.6229032410120554
  0.2499967268880415 -0.0000626322891980  0.5542755995242856
  0.7500067719490981 -0.0000555688886429  0.5542753795480211
  0.2499975381868942  0.0000053398030988  0.5995836810516068
  0.7499984358229578 -0.0000575394723516  0.5995632006489184
  0.3771916638176154  0.2802125789432887  0.5779838581452236
  0.8772046220448423  0.2801885064700110  0.5779961451676316
  0.1262699294919052  0.2247671145147984  0.5781136124311295
  0.6262714186865963  0.2247556983956138  0.5781153203851416
  0.1228474959009845  0.7198647537868298  0.5779763098542278
  0.6228484678538949  0.7199055666521335  0.5779870952697043
  0.3737475362778251  0.7751372878360461  0.5781145144265017
  0.8737453240652536  0.7751549723453145  0.5781156103813407
  0.9953151840432595  0.4999605449343602  0.5078632537729636
  0.4953174809308659  0.4999602106791405  0.5078636382272762
 -0.0000032195829117  0.4999377545110469  0.4644875141972846
  0.4999985374455721  0.4999395121035469  0.4644868346902264
  0.1379983030941317  0.7747248153393471  0.5327971181268967
  0.6380506406088736  0.7748641280849496  0.5327936748064845
  0.3880310229957541  0.7249650201484710  0.5327912945346449
  0.8880384377325762  0.7250064587298292  0.5327867765022960
  0.3619092543714327  0.2249414364557979  0.5327939937552764
  0.8619272098238082  0.2250154354478439  0.5327911178454161
  0.1119423659763504  0.2749740908420220  0.5327891975935629
  0.6119584903092782  0.2749132325022036  0.5327850094386967
  0.2500073513991938  0.9875185442777166  0.4635262429041770
  0.7500000093847098  0.9875219705570223  0.4635241431171197
  0.2499921244722712  0.9875635908274020  0.5088454519731568
  0.7499942645846744  0.9875732958941856  0.5088462774599033
  0.3928002634990535  0.2624543999860783  0.4869546732088337
  0.8927986860057238  0.2624556813546468  0.4869548000795487
  0.1428622720258212  0.2373838439299047  0.4864748333697463
  0.6428603717449878  0.2373854352452598  0.4864747420589054
  0.1072184081098967  0.7375508431418345  0.4869569282748252
  0.6072167431289508  0.7375471052910926  0.4869571655896838
  0.3571841343749638  0.7624980197904587  0.4864743193035718
  0.8571848883026028  0.7624951862859031  0.4864746839685845
  0.0000003867696691  0.4999491375912237  0.4191633000854876
  0.4999998884965482  0.4999501092440544  0.4191640957058267
  0.1380140345054720  0.7749358367843581  0.4406246349957700
  0.6379731639472512  0.7748069106504751  0.4406229614724653
  0.3857803698635877  0.7249667036926525  0.4406344394316321
  0.8857668825451880  0.7249660979861833  0.4406334957266277
  0.3619680796948280  0.2249843349707253  0.4406294907970046
  0.8619306985601559  0.2248622509389639  0.4406275350783375
  0.1142469205057546  0.2749359414025388  0.4406374127625008
  0.6142122390579391  0.2749531753614549  0.4406348812122318
  0.2499892902678561 -0.0000462130317108  0.4167656925034592
  0.7499882298689238  0.9999177213064419  0.4167691626392996
  0.3881789552626878  0.2751135888361111  0.3937621919936222
  0.8881789049512036  0.2751104158274192  0.3937619615950723
  0.1380851447515752  0.2248093801205280  0.3937518192148627
  0.6380742713569486  0.2248111766849753  0.3937520655900662
  0.1118272425651532  0.7249302754216355  0.3937601596298436
  0.6118287476500092  0.7249332399168109  0.3937601393526540
  0.3619182394697923  0.7752179165443105  0.3937534435744256
  0.8619190753115061  0.7752129920589009  0.3937533428923261
  0.2496933025428572  0.0122942041908683  0.6432313170027841
  0.3452892630934952  0.0874833128680682  0.6521100866707515
 
  0.00000000E+00  0.00000000E+00  0.00000000E+00
  0.00000000E+00  0.00000000E+00  0.00000000E+00
  0.00000000E+00  0.00000000E+00  0.00000000E+00
  0.00000000E+00  0.00000000E+00  0.00000000E+00
  0.00000000E+00  0.00000000E+00  0.00000000E+00
  0.00000000E+00  0.00000000E+00  0.00000000E+00
  0.00000000E+00  0.00000000E+00  0.00000000E+00
  0.00000000E+00  0.00000000E+00  0.00000000E+00
  0.00000000E+00  0.00000000E+00  0.00000000E+00
  0.00000000E+00  0.00000000E+00  0.00000000E+00
  0.00000000E+00  0.00000000E+00  0.00000000E+00
  0.00000000E+00  0.00000000E+00  0.00000000E+00
  0.00000000E+00  0.00000000E+00  0.00000000E+00
  0.00000000E+00  0.00000000E+00  0.00000000E+00
  0.00000000E+00  0.00000000E+00  0.00000000E+00
  0.00000000E+00  0.00000000E+00  0.00000000E+00
  0.00000000E+00  0.00000000E+00  0.00000000E+00
  0.00000000E+00  0.00000000E+00  0.00000000E+00
  0.00000000E+00  0.00000000E+00  0.00000000E+00
  0.00000000E+00  0.00000000E+00  0.00000000E+00
  0.00000000E+00  0.00000000E+00  0.00000000E+00
  0.00000000E+00  0.00000000E+00  0.00000000E+00
  0.00000000E+00  0.00000000E+00  0.00000000E+00
  0.00000000E+00  0.00000000E+00  0.00000000E+00
  0.00000000E+00  0.00000000E+00  0.00000000E+00
  0.00000000E+00  0.00000000E+00  0.00000000E+00
  0.00000000E+00  0.00000000E+00  0.00000000E+00
  0.00000000E+00  0.00000000E+00  0.00000000E+00
  0.00000000E+00  0.00000000E+00  0.00000000E+00
  0.00000000E+00  0.00000000E+00  0.00000000E+00
  0.00000000E+00  0.00000000E+00  0.00000000E+00
  0.00000000E+00  0.00000000E+00  0.00000000E+00
  0.00000000E+00  0.00000000E+00  0.00000000E+00
  0.00000000E+00  0.00000000E+00  0.00000000E+00
  0.00000000E+00  0.00000000E+00  0.00000000E+00
  0.00000000E+00  0.00000000E+00  0.00000000E+00
  0.00000000E+00  0.00000000E+00  0.00000000E+00
  0.00000000E+00  0.00000000E+00  0.00000000E+00
  0.00000000E+00  0.00000000E+00  0.00000000E+00
  0.00000000E+00  0.00000000E+00  0.00000000E+00
  0.00000000E+00  0.00000000E+00  0.00000000E+00
  0.00000000E+00  0.00000000E+00  0.00000000E+00
  0.00000000E+00  0.00000000E+00  0.00000000E+00
  0.00000000E+00  0.00000000E+00  0.00000000E+00
  0.00000000E+00  0.00000000E+00  0.00000000E+00
  0.00000000E+00  0.00000000E+00  0.00000000E+00
  0.00000000E+00  0.00000000E+00  0.00000000E+00
  0.00000000E+00  0.00000000E+00  0.00000000E+00
  0.00000000E+00  0.00000000E+00  0.00000000E+00
  0.00000000E+00  0.00000000E+00  0.00000000E+00
  0.00000000E+00  0.00000000E+00  0.00000000E+00
  0.00000000E+00  0.00000000E+00  0.00000000E+00
  0.00000000E+00  0.00000000E+00  0.00000000E+00
  0.00000000E+00  0.00000000E+00  0.00000000E+00
  0.00000000E+00  0.00000000E+00  0.00000000E+00
  0.00000000E+00  0.00000000E+00  0.00000000E+00
  0.00000000E+00  0.00000000E+00  0.00000000E+00
  0.00000000E+00  0.00000000E+00  0.00000000E+00
  0.00000000E+00  0.00000000E+00  0.00000000E+00
  0.00000000E+00  0.00000000E+00  0.00000000E+00
  0.00000000E+00  0.00000000E+00  0.00000000E+00
  0.00000000E+00  0.00000000E+00  0.00000000E+00
  0.00000000E+00  0.00000000E+00  0.00000000E+00
  0.00000000E+00  0.00000000E+00  0.00000000E+00
  0.00000000E+00  0.00000000E+00  0.00000000E+00
  0.00000000E+00  0.00000000E+00  0.00000000E+00
  0.00000000E+00  0.00000000E+00  0.00000000E+00
  0.00000000E+00  0.00000000E+00  0.00000000E+00
  0.00000000E+00  0.00000000E+00  0.00000000E+00
  0.00000000E+00  0.00000000E+00  0.00000000E+00
  0.00000000E+00  0.00000000E+00  0.00000000E+00
  0.00000000E+00  0.00000000E+00  0.00000000E+00
  0.00000000E+00  0.00000000E+00  0.00000000E+00
  0.00000000E+00  0.00000000E+00  0.00000000E+00
  0.00000000E+00  0.00000000E+00  0.00000000E+00
  0.00000000E+00  0.00000000E+00  0.00000000E+00
  0.00000000E+00  0.00000000E+00  0.00000000E+00
  0.00000000E+00  0.00000000E+00  0.00000000E+00
  0.00000000E+00  0.00000000E+00  0.00000000E+00
  0.00000000E+00  0.00000000E+00  0.00000000E+00
  0.00000000E+00  0.00000000E+00  0.00000000E+00
  0.00000000E+00  0.00000000E+00  0.00000000E+00
  0.00000000E+00  0.00000000E+00  0.00000000E+00
  0.00000000E+00  0.00000000E+00  0.00000000E+00
  0.00000000E+00  0.00000000E+00  0.00000000E+00
  0.00000000E+00  0.00000000E+00  0.00000000E+00
  0.00000000E+00  0.00000000E+00  0.00000000E+00
  0.00000000E+00  0.00000000E+00  0.00000000E+00
  0.00000000E+00  0.00000000E+00  0.00000000E+00
  0.00000000E+00  0.00000000E+00  0.00000000E+00
  0.00000000E+00  0.00000000E+00  0.00000000E+00
  0.00000000E+00  0.00000000E+00  0.00000000E+00
  0.00000000E+00  0.00000000E+00  0.00000000E+00
  0.00000000E+00  0.00000000E+00  0.00000000E+00
  0.00000000E+00  0.00000000E+00  0.00000000E+00
  0.00000000E+00  0.00000000E+00  0.00000000E+00
  0.00000000E+00  0.00000000E+00  0.00000000E+00
  0.00000000E+00  0.00000000E+00  0.00000000E+00
  0.00000000E+00  0.00000000E+00  0.00000000E+00
  0.00000000E+00  0.00000000E+00  0.00000000E+00
  0.00000000E+00  0.00000000E+00  0.00000000E+00
  0.00000000E+00  0.00000000E+00  0.00000000E+00
  0.00000000E+00  0.00000000E+00  0.00000000E+00
  0.00000000E+00  0.00000000E+00  0.00000000E+00
  0.00000000E+00  0.00000000E+00  0.00000000E+00
  0.00000000E+00  0.00000000E+00  0.00000000E+00
  0.00000000E+00  0.00000000E+00  0.00000000E+00
  0.00000000E+00  0.00000000E+00  0.00000000E+00
  0.00000000E+00  0.00000000E+00  0.00000000E+00
  0.00000000E+00  0.00000000E+00  0.00000000E+00
  0.00000000E+00  0.00000000E+00  0.00000000E+00
  0.00000000E+00  0.00000000E+00  0.00000000E+00
  0.00000000E+00  0.00000000E+00  0.00000000E+00
  0.00000000E+00  0.00000000E+00  0.00000000E+00
  0.00000000E+00  0.00000000E+00  0.00000000E+00
