H8 Ir32 O72                             
   1.00000000000000     
     9.0898780000000006    0.0000000000000000    0.0000000000000000
     0.0000000000000000   11.1045669999999994   -0.0793000000000000
     0.0000000000000000    0.0000000000000000   31.3300599999999996
   H    Ir   O 
     8    32    72
Direct
  0.2551414297570178  0.3710259107812309  0.7011764376571051
  0.2552259542499506  0.8711155435652642  0.7011570221089177
  0.7551924811135490  0.3710717585273895  0.7011637488039133
  0.7552537163311455  0.8711459747371905  0.7011561337903904
  0.8079695708550574  0.0757237823638772  0.6811823094662324
  0.8079761674507653  0.5757212758288944  0.6811842048866233
  0.3079725993010250  0.0757236080493588  0.6811839866274905
  0.3079730957910108  0.5757296209461820  0.6811836250167629
  0.2628798769872955  0.3287410555791080  0.3750540773490714
  0.2628799241374354  0.8287413026209692  0.3750545737092230
  0.7628806662566567  0.3287429992489524  0.3750539489022837
  0.7628793054527401  0.8287403019067265  0.3750552815731787
  0.9868654064079951  0.0795415160893669  0.3748660941887005
  0.9869108005793975  0.5795465445266170  0.3748522868715299
  0.4868876599168248  0.0795382040242592  0.3748607493975558
  0.4868931806982496  0.5795460797353086  0.3748587693922439
  0.2477351284258040  0.0022462756300374  0.4571641282514537
  0.2477206267707794  0.5022308310899525  0.4571506589965744
  0.7477343086824454  0.0022403875578592  0.4571631400164951
  0.7477506044285572  0.5022381931132958  0.4571559851597220
  0.0018200453270288  0.2526065091980013  0.4575204598549619
  0.0017966024047728  0.7525968966763772  0.4575188590270515
  0.5017868558255618  0.2525603326807253  0.4575112707251771
  0.5018164892349452  0.7526145714010629  0.4575199656923261
  0.2487370800836447  0.1664811985573985  0.5412961075041588
  0.2488648957618458  0.6665844416150954  0.5411288327928687
  0.7488409571054150  0.1665744814920837  0.5411450056727196
  0.7487271325545730  0.6665600506969815  0.5412692283998707
  0.9970401381787432  0.4164622021970004  0.5419557362290318
  0.9969847429400870  0.9163204974801605  0.5419967211884998
  0.4971679900345011  0.4164591921096228  0.5418376897845221
  0.4970666633886405  0.9164559616228493  0.5419756853731880
  0.2374182271210066  0.3371087250720924  0.6252562852747275
  0.2375402941857217  0.8370504411827648  0.6252475181667445
  0.7374803341434767  0.3370808859835314  0.6252388625838942
  0.7381412761229628  0.8365539985581326  0.6255172020833422
  0.0019539112080902  0.0876877497664291  0.6260087829253885
  0.0018313762202453  0.5878256557692919  0.6260499573423188
  0.5017750356833571  0.0878460501650098  0.6260555118227034
  0.5021076159207800  0.5875696363272221  0.6259429146909182
  0.3461599831776287  0.1881749929021104  0.3509745430280488
  0.3461619423425185  0.6881762226248369  0.3509747803627837
  0.8461622833288839  0.1881774050102281  0.3509743828889076
  0.8461629052245736  0.6881751554228569  0.3509744411873041
  0.0956170679963477  0.2318453222344694  0.3993159794506544
  0.0956164175195231  0.7318449417794346  0.3993160002927522
  0.5956171720651151  0.2318445303752602  0.3993155776333745
  0.5956175018642652  0.7318451984823692  0.3993158797439207
  0.1528347184832642  0.4817924617707448  0.3992842291050629
  0.1528334771633303  0.9817936549635859  0.3992850420280654
  0.6528349457417616  0.4817927646183290  0.3992845905058490
  0.6528275961440289  0.9817914202748335  0.3992885056823977
  0.4022322416900847  0.4366716697334119  0.3502700400820475
  0.4022325037049785  0.9366707464338673  0.3502699777058135
  0.9022301581974188  0.4366757284114268  0.3502727433476611
  0.9022321442607449  0.9366687221839231  0.3502715596285742
  0.3425598292126524  0.3531541995311717  0.4339862981307735
  0.3425602594264138  0.8531550272791668  0.4339864976457102
  0.8425605069732706  0.3531543813083249  0.4339864414681681
  0.8425604955377656  0.8531550057539122  0.4339866076683472
  0.0957402893268505  0.4004650837721810  0.4845021469353458
  0.0957372278593132  0.9004682850109684  0.4845039083724378
  0.5957435117506286  0.4004607564343935  0.4844966547664726
  0.5957412613891890  0.9004672012022885  0.4845034263523941
  0.1529143426179164  0.1489460244184888  0.4839780911604335
  0.1528840536363357  0.6489407267436239  0.4839742857697181
  0.6528840576922266  0.1489393895539801  0.4839747172020460
  0.6529132407227622  0.6489457770385861  0.4839772922112873
  0.4041620704001404  0.1019718998176934  0.4333837904073135
  0.4041640392072278  0.6019739306432061  0.4333839918304359
  0.9041635317621423  0.1019746921712151  0.4333847406374721
  0.9041651077638693  0.6019738848196486  0.4333838527256076
  0.3457638143991697  0.0180426481682336  0.5160944744947324
  0.3457267882631298  0.5180311367262770  0.5160821931077770
  0.8457256598272969  0.0181200551622305  0.5161076635593790
  0.8457454812706644  0.5180628542370942  0.5160965846625608
  0.0953207492341911  0.0656325505041661  0.5673363162388819
  0.0953471771890038  0.5656576653700465  0.5673332164367945
  0.5953058373984597  0.0656665129128745  0.5673316664771694
  0.5953814617328735  0.5656462541379851  0.5673333063870327
  0.1527416950161240  0.3152379476694690  0.5659951571467166
  0.1527511509144025  0.8152326449389071  0.5659934166374566
  0.6527416602268059  0.3152485303600043  0.5659891989582867
  0.6527650146972380  0.8152340743048243  0.5660039304788855
  0.4041967627811202  0.2662651390117124  0.5154883610482855
  0.4042041889999048  0.7662600178865354  0.5154810402379452
  0.9042019705611034  0.2662697573567112  0.5154855789026609
  0.9041935262911223  0.7662658647357944  0.5154897437741642
  0.3406171707488154  0.1866478600717872  0.6001482623057929
  0.3421946487752757  0.6870586323892689  0.5994907256310178
  0.8421847083027840  0.1870568266500219  0.5994931503230948
  0.8406197238349044  0.6866367394042880  0.6001579532751903
  0.0969718870859815  0.2321247936446134  0.6487422953765531
  0.0969943353811456  0.7321137848245489  0.6487383908213710
  0.5969800916210601  0.2321170616561984  0.6487420851051673
  0.5969561203110116  0.7321081084713046  0.6487441475750975
  0.1499931040767434  0.4833429764560119  0.6477666683392855
  0.1499917887431181  0.9833557586855297  0.6477812104627778
  0.6499940376804609  0.4833432610825337  0.6477709466211437
  0.6499917564285903  0.9833408487829738  0.6477692937850270
  0.4037524524303204  0.4351594621056057  0.6000340146839770
  0.4022115565150853  0.9365628719331612  0.6002203429977570
  0.9022073585874698  0.4365718770954801  0.6002164790532496
  0.9033049031243550  0.9351506696522905  0.6005645345631334
  0.3324726798734029  0.3447690939593177  0.6812999802636156
  0.3325897411965708  0.8445864943056193  0.6813034881410669
  0.8325790750255452  0.3445952815655454  0.6813015422983241
  0.8326499991272084  0.8445531173937381  0.6813175753536355
  0.9099545331222563  0.1063430383292069  0.6812979287947629
  0.9099549757286799  0.6063633687652623  0.6813132480557850
  0.4099535170940543  0.1063758174885323  0.6813169052382332
  0.4099658451602338  0.6063267546100750  0.6812932071291086
 
  0.00000000E+00  0.00000000E+00  0.00000000E+00
  0.00000000E+00  0.00000000E+00  0.00000000E+00
  0.00000000E+00  0.00000000E+00  0.00000000E+00
  0.00000000E+00  0.00000000E+00  0.00000000E+00
  0.00000000E+00  0.00000000E+00  0.00000000E+00
  0.00000000E+00  0.00000000E+00  0.00000000E+00
  0.00000000E+00  0.00000000E+00  0.00000000E+00
  0.00000000E+00  0.00000000E+00  0.00000000E+00
  0.00000000E+00  0.00000000E+00  0.00000000E+00
  0.00000000E+00  0.00000000E+00  0.00000000E+00
  0.00000000E+00  0.00000000E+00  0.00000000E+00
  0.00000000E+00  0.00000000E+00  0.00000000E+00
  0.00000000E+00  0.00000000E+00  0.00000000E+00
  0.00000000E+00  0.00000000E+00  0.00000000E+00
  0.00000000E+00  0.00000000E+00  0.00000000E+00
  0.00000000E+00  0.00000000E+00  0.00000000E+00
  0.00000000E+00  0.00000000E+00  0.00000000E+00
  0.00000000E+00  0.00000000E+00  0.00000000E+00
  0.00000000E+00  0.00000000E+00  0.00000000E+00
  0.00000000E+00  0.00000000E+00  0.00000000E+00
  0.00000000E+00  0.00000000E+00  0.00000000E+00
  0.00000000E+00  0.00000000E+00  0.00000000E+00
  0.00000000E+00  0.00000000E+00  0.00000000E+00
  0.00000000E+00  0.00000000E+00  0.00000000E+00
  0.00000000E+00  0.00000000E+00  0.00000000E+00
  0.00000000E+00  0.00000000E+00  0.00000000E+00
  0.00000000E+00  0.00000000E+00  0.00000000E+00
  0.00000000E+00  0.00000000E+00  0.00000000E+00
  0.00000000E+00  0.00000000E+00  0.00000000E+00
  0.00000000E+00  0.00000000E+00  0.00000000E+00
  0.00000000E+00  0.00000000E+00  0.00000000E+00
  0.00000000E+00  0.00000000E+00  0.00000000E+00
  0.00000000E+00  0.00000000E+00  0.00000000E+00
  0.00000000E+00  0.00000000E+00  0.00000000E+00
  0.00000000E+00  0.00000000E+00  0.00000000E+00
  0.00000000E+00  0.00000000E+00  0.00000000E+00
  0.00000000E+00  0.00000000E+00  0.00000000E+00
  0.00000000E+00  0.00000000E+00  0.00000000E+00
  0.00000000E+00  0.00000000E+00  0.00000000E+00
  0.00000000E+00  0.00000000E+00  0.00000000E+00
  0.00000000E+00  0.00000000E+00  0.00000000E+00
  0.00000000E+00  0.00000000E+00  0.00000000E+00
  0.00000000E+00  0.00000000E+00  0.00000000E+00
  0.00000000E+00  0.00000000E+00  0.00000000E+00
  0.00000000E+00  0.00000000E+00  0.00000000E+00
  0.00000000E+00  0.00000000E+00  0.00000000E+00
  0.00000000E+00  0.00000000E+00  0.00000000E+00
  0.00000000E+00  0.00000000E+00  0.00000000E+00
  0.00000000E+00  0.00000000E+00  0.00000000E+00
  0.00000000E+00  0.00000000E+00  0.00000000E+00
  0.00000000E+00  0.00000000E+00  0.00000000E+00
  0.00000000E+00  0.00000000E+00  0.00000000E+00
  0.00000000E+00  0.00000000E+00  0.00000000E+00
  0.00000000E+00  0.00000000E+00  0.00000000E+00
  0.00000000E+00  0.00000000E+00  0.00000000E+00
  0.00000000E+00  0.00000000E+00  0.00000000E+00
  0.00000000E+00  0.00000000E+00  0.00000000E+00
  0.00000000E+00  0.00000000E+00  0.00000000E+00
  0.00000000E+00  0.00000000E+00  0.00000000E+00
  0.00000000E+00  0.00000000E+00  0.00000000E+00
  0.00000000E+00  0.00000000E+00  0.00000000E+00
  0.00000000E+00  0.00000000E+00  0.00000000E+00
  0.00000000E+00  0.00000000E+00  0.00000000E+00
  0.00000000E+00  0.00000000E+00  0.00000000E+00
  0.00000000E+00  0.00000000E+00  0.00000000E+00
  0.00000000E+00  0.00000000E+00  0.00000000E+00
  0.00000000E+00  0.00000000E+00  0.00000000E+00
  0.00000000E+00  0.00000000E+00  0.00000000E+00
  0.00000000E+00  0.00000000E+00  0.00000000E+00
  0.00000000E+00  0.00000000E+00  0.00000000E+00
  0.00000000E+00  0.00000000E+00  0.00000000E+00
  0.00000000E+00  0.00000000E+00  0.00000000E+00
  0.00000000E+00  0.00000000E+00  0.00000000E+00
  0.00000000E+00  0.00000000E+00  0.00000000E+00
  0.00000000E+00  0.00000000E+00  0.00000000E+00
  0.00000000E+00  0.00000000E+00  0.00000000E+00
  0.00000000E+00  0.00000000E+00  0.00000000E+00
  0.00000000E+00  0.00000000E+00  0.00000000E+00
  0.00000000E+00  0.00000000E+00  0.00000000E+00
  0.00000000E+00  0.00000000E+00  0.00000000E+00
  0.00000000E+00  0.00000000E+00  0.00000000E+00
  0.00000000E+00  0.00000000E+00  0.00000000E+00
  0.00000000E+00  0.00000000E+00  0.00000000E+00
  0.00000000E+00  0.00000000E+00  0.00000000E+00
  0.00000000E+00  0.00000000E+00  0.00000000E+00
  0.00000000E+00  0.00000000E+00  0.00000000E+00
  0.00000000E+00  0.00000000E+00  0.00000000E+00
  0.00000000E+00  0.00000000E+00  0.00000000E+00
  0.00000000E+00  0.00000000E+00  0.00000000E+00
  0.00000000E+00  0.00000000E+00  0.00000000E+00
  0.00000000E+00  0.00000000E+00  0.00000000E+00
  0.00000000E+00  0.00000000E+00  0.00000000E+00
  0.00000000E+00  0.00000000E+00  0.00000000E+00
  0.00000000E+00  0.00000000E+00  0.00000000E+00
  0.00000000E+00  0.00000000E+00  0.00000000E+00
  0.00000000E+00  0.00000000E+00  0.00000000E+00
  0.00000000E+00  0.00000000E+00  0.00000000E+00
  0.00000000E+00  0.00000000E+00  0.00000000E+00
  0.00000000E+00  0.00000000E+00  0.00000000E+00
  0.00000000E+00  0.00000000E+00  0.00000000E+00
  0.00000000E+00  0.00000000E+00  0.00000000E+00
  0.00000000E+00  0.00000000E+00  0.00000000E+00
  0.00000000E+00  0.00000000E+00  0.00000000E+00
  0.00000000E+00  0.00000000E+00  0.00000000E+00
  0.00000000E+00  0.00000000E+00  0.00000000E+00
  0.00000000E+00  0.00000000E+00  0.00000000E+00
  0.00000000E+00  0.00000000E+00  0.00000000E+00
  0.00000000E+00  0.00000000E+00  0.00000000E+00
  0.00000000E+00  0.00000000E+00  0.00000000E+00
  0.00000000E+00  0.00000000E+00  0.00000000E+00
  0.00000000E+00  0.00000000E+00  0.00000000E+00
  0.00000000E+00  0.00000000E+00  0.00000000E+00
