Ba10 Sr10 Co24 O72                      
    1.000000000000000     
    11.1057150000000000    0.0000000000000000    0.0000000000000000
    -0.0047930000000000    5.5528550000000001    0.0000000000000000
     0.0000000000000000    0.0000000000000000   87.2902260000000041
   Ba   Sr   Co   O 
    10    10    24    72
Direct
  0.9991878247945054  0.0002068328250308  0.5550783892752402
  0.5007847668920076  0.9976080468458096  0.5550802594480545
  0.2530092761861411  0.5009083838233118  0.6007111524312723
  0.7528755601571414  0.5019872409334608  0.6007534591932395
  0.0002984243324080  0.9976084566307570  0.4636526525377515
  0.5003092715485583  0.9976017331808883  0.4636520035848010
  0.2495111612810840  0.4953466194543044  0.5095079108382025
  0.7496395395056131  0.4953157291986464  0.5095292306822298
  0.2499275164107335  0.5000891693644017  0.4167453565466107
  0.7498904600043972  0.5001436031529402  0.4167404466404968
  0.2507779253557949  0.4915154257112980  0.5552950107410703
  0.7501738490383505  0.4947016696344105  0.5553131340272757
  0.5014051582748932  0.0086041885291809  0.6008150362840635
  0.0018687668171496  0.0087607989259491  0.6008141362694915
  0.2527771812928218  0.4992511620056096  0.4632994554361577
  0.7514283815224707  0.4908592000326896  0.4633068721566372
  0.4998345321682077  0.9919539198210228  0.5089138651454150
  0.9997707546432788  0.9925967127990866  0.5089365387551233
  0.4999776995048371 -0.0005049872590882  0.4175234087914571
  0.0000045243394953 -0.0004875244482177  0.4175224823309503
  0.2482054718196401  0.0112372122053481  0.6234748697007807
  0.7479234840669623  0.0109483608650405  0.6234796732935302
  0.0021058815086794  0.5112381056447388  0.6234695626157727
  0.5021612964090023  0.5112791830863805  0.6234701009415897
  0.9997491207917617  0.5089888409658820  0.5783008470098500
  0.4998593732716076  0.5087653202587867  0.5782999613450739
  0.2502207924687789  0.0011702734780996  0.5773984273985645
  0.7504681063519585  0.0092329467726857  0.5780056305234581
  0.2511782076020736  0.9911919189796047  0.5322113722634925
  0.7510148547168577  0.9920136623362606  0.5323482045066471
  0.9995655783326646  0.4976962196214486  0.5320302029962426
  0.4988757190015071  0.4913485808335619  0.5319195314055494
  0.9992362258329930  0.5062827795869370  0.4863421180000712
  0.4992356615916659  0.5062227688738585  0.4863437000167239
  0.2500132518260810  0.0000862645877095  0.4866837453496144
  0.7500216128453268  0.9996199437497080  0.4866846357399485
  0.2513188068104949  0.9903923167237396  0.4407629012165166
  0.7515685665705539  0.9898772692399614  0.4407374775657154
 -0.0012891207497038  0.4899937050099568  0.4406901289635090
  0.4986261736805235  0.4898451992888910  0.4406676785174877
  0.9981592009833584  0.5106428752289054  0.3952893873212480
  0.4981650182322273  0.5106357968513781  0.3952810453901311
  0.2517481898297760  0.0107575408777232  0.3952588529443745
  0.7517648066810189  0.0107571234236214  0.3952549398177428
  0.0001472314683428  0.5080481790004666  0.6008794722918795
  0.5001531401642232  0.5080065243277765  0.6008773123242296
  0.9953025716357458  0.4999236562106008  0.5531749376483577
  0.5047055304363978  0.5000153734726960  0.5531721628238201
  0.1309548942145613  0.7921235670698955  0.6225650678639019
  0.6310059817762294  0.7876844338867354  0.6224147731343023
  0.3810255266407386  0.7126445721023369  0.6224160879144500
  0.8810337614682201  0.7126443787755233  0.6224163178235848
  0.3690676058901807  0.2124305779434749  0.6224100895838932
  0.8690585120557388  0.2124210225225723  0.6224099746682648
  0.1189327704708503  0.2875084251417238  0.6224153650144104
  0.6189204717614146  0.2874997404533412  0.6224164711623777
  0.2500046966909102 -0.0000356046916432  0.5542759510448275
  0.7500018806624222 -0.0000246357058977  0.5542736693536267
  0.2499986628996343  0.0000025201074717  0.5995875647144835
  0.7452706083806221 -0.0000264834494154  0.6000287418566335
  0.3772208339679648  0.2802453258596895  0.5779955590014734
  0.8772571085540286  0.2798786567254343  0.5780817819118351
  0.1262664803846583  0.2248047651497206  0.5781139678497996
  0.6262567359274505  0.2248716945542042  0.5781169299994406
  0.1228463701839116  0.7198695787444914  0.5779795588300112
  0.6228388731952533  0.7199016481355613  0.5779904404225414
  0.3737508430961291  0.7751487343605100  0.5781129640725283
  0.8737350075132223  0.7752481567723020  0.5781189990937213
  0.9953110215799941  0.4999790812117171  0.5078589399376816
  0.4953115918575620  0.4999664693641312  0.5078594510843570
 -0.0000027165376456  0.4999305899340303  0.4644883368252905
  0.4999980823764793  0.4999301977442684  0.4644881373480629
  0.1380078772236639  0.7747522655631941  0.5327965816394462
  0.6380424189793699  0.7748004143566167  0.5327937398662608
  0.3880544324099820  0.7249004783833793  0.5327900136441081
  0.8880286436975343  0.7250370088813326  0.5327869990962857
  0.3619329187199117  0.2249796585108652  0.5327932685118489
  0.8619096201208599  0.2249571854317881  0.5327917845256670
  0.1119521115140427  0.2749793135879809  0.5327889631149445
  0.6119889774165214  0.2748306141474480  0.5327859025285109
  0.2500059736511602  0.9875288063329558  0.4635231326777239
  0.7500044551889712  0.9875353944413570  0.4635235394465356
  0.2499950261805754  0.9875736924345662  0.5088439811113599
  0.7499947881404250  0.9875783025757791  0.5088439185658519
  0.3928083330528371  0.2624701745327107  0.4869546764811556
  0.8928073047067075  0.2624690253958017  0.4869546045556348
  0.1428688356695552  0.2373894438473044  0.4864749350189130
  0.6428699534211506  0.2373860466815990  0.4864749034371779
  0.1072172953228730  0.7375561962711019  0.4869569313729702
  0.6072159013277887  0.7375535992515453  0.4869570640647498
  0.3571865279181154  0.7625101108773177  0.4864744000786452
  0.8571846410932906  0.7625099121561374  0.4864745182098200
  0.0000145388367507  0.4999666968317441  0.4191221681096892
  0.5000118975288081  0.4999683661666253  0.4191225180056898
  0.1379989306321573  0.7748508297645778  0.4406214934273504
  0.6380018445034925  0.7748538692095875  0.4406212557916501
  0.3857972339188397  0.7248966985789203  0.4406309623039596
  0.8858019830393543  0.7248937313087696  0.4406308956885911
  0.3619556597318838  0.2249210369487789  0.4406253752254991
  0.8619557453406108  0.2249174165748350  0.4406253913970878
  0.1142482596188158  0.2748973110412706  0.4406320908946250
  0.6142587513318516  0.2748800394126346  0.4406335620176448
  0.2499904801258241 -0.0000500160487258  0.4167680800106927
  0.7499907423387436 -0.0000497447834683  0.4167681360460733
  0.3881795134061253  0.2751237992175265  0.3937613317611817
  0.8881795670987100  0.2751240612631887  0.3937613598876326
  0.1380839371895210  0.2248297822853891  0.3937511875844892
  0.6380844149021313  0.2248304851672236  0.3937512396402049
  0.1118306114594632  0.7249580395767852  0.3937595787706278
  0.6118325442177919  0.7249591519576915  0.3937596854525504
  0.3619153806071252  0.7752195123984941  0.3937531501620897
  0.8619155375740978  0.7752194280017025  0.3937531378889150
  0.2559312700967472  0.0124379365598198  0.6423480318196850
  0.7559215761236640  0.0124314348742606  0.6423471816606550
 -0.0059106614977532  0.5124429676156845  0.6423493125610451
  0.4940882728589778  0.5124407870404559  0.6423491943858098
 
  0.00000000E+00  0.00000000E+00  0.00000000E+00
  0.00000000E+00  0.00000000E+00  0.00000000E+00
  0.00000000E+00  0.00000000E+00  0.00000000E+00
  0.00000000E+00  0.00000000E+00  0.00000000E+00
  0.00000000E+00  0.00000000E+00  0.00000000E+00
  0.00000000E+00  0.00000000E+00  0.00000000E+00
  0.00000000E+00  0.00000000E+00  0.00000000E+00
  0.00000000E+00  0.00000000E+00  0.00000000E+00
  0.00000000E+00  0.00000000E+00  0.00000000E+00
  0.00000000E+00  0.00000000E+00  0.00000000E+00
  0.00000000E+00  0.00000000E+00  0.00000000E+00
  0.00000000E+00  0.00000000E+00  0.00000000E+00
  0.00000000E+00  0.00000000E+00  0.00000000E+00
  0.00000000E+00  0.00000000E+00  0.00000000E+00
  0.00000000E+00  0.00000000E+00  0.00000000E+00
  0.00000000E+00  0.00000000E+00  0.00000000E+00
  0.00000000E+00  0.00000000E+00  0.00000000E+00
  0.00000000E+00  0.00000000E+00  0.00000000E+00
  0.00000000E+00  0.00000000E+00  0.00000000E+00
  0.00000000E+00  0.00000000E+00  0.00000000E+00
  0.00000000E+00  0.00000000E+00  0.00000000E+00
  0.00000000E+00  0.00000000E+00  0.00000000E+00
  0.00000000E+00  0.00000000E+00  0.00000000E+00
  0.00000000E+00  0.00000000E+00  0.00000000E+00
  0.00000000E+00  0.00000000E+00  0.00000000E+00
  0.00000000E+00  0.00000000E+00  0.00000000E+00
  0.00000000E+00  0.00000000E+00  0.00000000E+00
  0.00000000E+00  0.00000000E+00  0.00000000E+00
  0.00000000E+00  0.00000000E+00  0.00000000E+00
  0.00000000E+00  0.00000000E+00  0.00000000E+00
  0.00000000E+00  0.00000000E+00  0.00000000E+00
  0.00000000E+00  0.00000000E+00  0.00000000E+00
  0.00000000E+00  0.00000000E+00  0.00000000E+00
  0.00000000E+00  0.00000000E+00  0.00000000E+00
  0.00000000E+00  0.00000000E+00  0.00000000E+00
  0.00000000E+00  0.00000000E+00  0.00000000E+00
  0.00000000E+00  0.00000000E+00  0.00000000E+00
  0.00000000E+00  0.00000000E+00  0.00000000E+00
  0.00000000E+00  0.00000000E+00  0.00000000E+00
  0.00000000E+00  0.00000000E+00  0.00000000E+00
  0.00000000E+00  0.00000000E+00  0.00000000E+00
  0.00000000E+00  0.00000000E+00  0.00000000E+00
  0.00000000E+00  0.00000000E+00  0.00000000E+00
  0.00000000E+00  0.00000000E+00  0.00000000E+00
  0.00000000E+00  0.00000000E+00  0.00000000E+00
  0.00000000E+00  0.00000000E+00  0.00000000E+00
  0.00000000E+00  0.00000000E+00  0.00000000E+00
  0.00000000E+00  0.00000000E+00  0.00000000E+00
  0.00000000E+00  0.00000000E+00  0.00000000E+00
  0.00000000E+00  0.00000000E+00  0.00000000E+00
  0.00000000E+00  0.00000000E+00  0.00000000E+00
  0.00000000E+00  0.00000000E+00  0.00000000E+00
  0.00000000E+00  0.00000000E+00  0.00000000E+00
  0.00000000E+00  0.00000000E+00  0.00000000E+00
  0.00000000E+00  0.00000000E+00  0.00000000E+00
  0.00000000E+00  0.00000000E+00  0.00000000E+00
  0.00000000E+00  0.00000000E+00  0.00000000E+00
  0.00000000E+00  0.00000000E+00  0.00000000E+00
  0.00000000E+00  0.00000000E+00  0.00000000E+00
  0.00000000E+00  0.00000000E+00  0.00000000E+00
  0.00000000E+00  0.00000000E+00  0.00000000E+00
  0.00000000E+00  0.00000000E+00  0.00000000E+00
  0.00000000E+00  0.00000000E+00  0.00000000E+00
  0.00000000E+00  0.00000000E+00  0.00000000E+00
  0.00000000E+00  0.00000000E+00  0.00000000E+00
  0.00000000E+00  0.00000000E+00  0.00000000E+00
  0.00000000E+00  0.00000000E+00  0.00000000E+00
  0.00000000E+00  0.00000000E+00  0.00000000E+00
  0.00000000E+00  0.00000000E+00  0.00000000E+00
  0.00000000E+00  0.00000000E+00  0.00000000E+00
  0.00000000E+00  0.00000000E+00  0.00000000E+00
  0.00000000E+00  0.00000000E+00  0.00000000E+00
  0.00000000E+00  0.00000000E+00  0.00000000E+00
  0.00000000E+00  0.00000000E+00  0.00000000E+00
  0.00000000E+00  0.00000000E+00  0.00000000E+00
  0.00000000E+00  0.00000000E+00  0.00000000E+00
  0.00000000E+00  0.00000000E+00  0.00000000E+00
  0.00000000E+00  0.00000000E+00  0.00000000E+00
  0.00000000E+00  0.00000000E+00  0.00000000E+00
  0.00000000E+00  0.00000000E+00  0.00000000E+00
  0.00000000E+00  0.00000000E+00  0.00000000E+00
  0.00000000E+00  0.00000000E+00  0.00000000E+00
  0.00000000E+00  0.00000000E+00  0.00000000E+00
  0.00000000E+00  0.00000000E+00  0.00000000E+00
  0.00000000E+00  0.00000000E+00  0.00000000E+00
  0.00000000E+00  0.00000000E+00  0.00000000E+00
  0.00000000E+00  0.00000000E+00  0.00000000E+00
  0.00000000E+00  0.00000000E+00  0.00000000E+00
  0.00000000E+00  0.00000000E+00  0.00000000E+00
  0.00000000E+00  0.00000000E+00  0.00000000E+00
  0.00000000E+00  0.00000000E+00  0.00000000E+00
  0.00000000E+00  0.00000000E+00  0.00000000E+00
  0.00000000E+00  0.00000000E+00  0.00000000E+00
  0.00000000E+00  0.00000000E+00  0.00000000E+00
  0.00000000E+00  0.00000000E+00  0.00000000E+00
  0.00000000E+00  0.00000000E+00  0.00000000E+00
  0.00000000E+00  0.00000000E+00  0.00000000E+00
  0.00000000E+00  0.00000000E+00  0.00000000E+00
  0.00000000E+00  0.00000000E+00  0.00000000E+00
  0.00000000E+00  0.00000000E+00  0.00000000E+00
  0.00000000E+00  0.00000000E+00  0.00000000E+00
  0.00000000E+00  0.00000000E+00  0.00000000E+00
  0.00000000E+00  0.00000000E+00  0.00000000E+00
  0.00000000E+00  0.00000000E+00  0.00000000E+00
  0.00000000E+00  0.00000000E+00  0.00000000E+00
  0.00000000E+00  0.00000000E+00  0.00000000E+00
  0.00000000E+00  0.00000000E+00  0.00000000E+00
  0.00000000E+00  0.00000000E+00  0.00000000E+00
  0.00000000E+00  0.00000000E+00  0.00000000E+00
  0.00000000E+00  0.00000000E+00  0.00000000E+00
  0.00000000E+00  0.00000000E+00  0.00000000E+00
  0.00000000E+00  0.00000000E+00  0.00000000E+00
  0.00000000E+00  0.00000000E+00  0.00000000E+00
  0.00000000E+00  0.00000000E+00  0.00000000E+00
  0.00000000E+00  0.00000000E+00  0.00000000E+00
  0.00000000E+00  0.00000000E+00  0.00000000E+00
