Ir32 O67                                
   1.00000000000000     
     6.3790139999999997    0.0000000000000000    0.0000000000000000
     0.0000000000000000   12.8550290000000000    0.0000000000000000
     0.0000000000000000    0.0000000000000000   38.5650860000000009
   Ir   O 
    32    67
Direct
  0.2500033017235120  0.1250001333460313  0.3735276385125219
  0.2499265500673849  0.6250002486677342  0.3735286330127386
  0.7499967003219178  0.1250001337089939  0.3735276371874968
  0.7500734516405778  0.6250002481604681  0.3735286324622955
 -0.0000000059512225  0.3749900925193941  0.3762995902704441
 -0.0000000052775678  0.8750075336211850  0.3763006030265165
  0.5000000051197915  0.3749875946017456  0.3762944185984979
  0.5000000047261687  0.8750126377358437  0.3762933723953057
  0.2500108192725877  0.3749063371064653  0.4579840417295363
  0.2500111207940252  0.8750946282731045  0.4579839958596031
  0.7499891819864982  0.3749063378172341  0.4579840418209685
  0.7499888807807281  0.8750946283999235  0.4579839951844533
  0.0000000001172999  0.1250001798140143  0.4579343543881110
  0.0000000014770654  0.6250005063761992  0.4579339985679058
  0.5000000002750741  0.1250001637941627  0.4579349850779464
  0.4999999988658291  0.6250005209854570  0.4579243319506829
  0.2499355101486228  0.1250005075165983  0.5412662194194143
  0.2523839325393785  0.6250004305054698  0.5414446486073172
  0.7500644892428682  0.1250005072970149  0.5412662194630523
  0.7476160720535119  0.6250004287670859  0.5414446485894898
  0.0000000055161063  0.3751268078273702  0.5419458510340591
  0.0000000108666058  0.8748739899462747  0.5419458291943910
  0.5000000070856920  0.3747911185293843  0.5419416996191715
  0.4999999995116497  0.8752096876282857  0.5419416516896535
  0.2502395963755088  0.3750212110089510  0.6263016221413743
  0.2502395393149163  0.8749791491772096  0.6263012273129080
  0.7497604102291026  0.3750211535893036  0.6263016264834883
  0.7497604615387857  0.8749791387733400  0.6263012176885320
 -0.0000000271134669  0.1250002932660912  0.6263120879950473
  0.0000000175905366  0.6250003075142139  0.6230985571156008
  0.5000000217509272  0.1250001952941210  0.6263083310754021
  0.4999999753348617  0.6250004001788669  0.6264043820761445
  0.0000000133752366  0.1249999750027480  0.3423470325166271
  0.0000000086729280  0.6249999531629890  0.3423461810949265
  0.4999999941224169  0.1249999660628883  0.3423469119837704
  0.4999999981423776  0.6249999596444922  0.3423471386365984
  0.2500007648446220  0.2771429776002466  0.3749555417480560
  0.2500003471194780  0.7771431088311332  0.3749557679422550
  0.7499992419537337  0.2771429779181517  0.3749555416887194
  0.7499996595846583  0.7771431091844916  0.3749557679130891
  0.0000000098309833  0.1250000644440179  0.4075671296884781
  0.0000000070139782  0.6250000359108024  0.4075668904228330
  0.4999999981341379  0.1250000688359689  0.4075669262767480
  0.5000000003146867  0.6250000255552541  0.4075792415683586
  0.2500004376245920  0.4728570611779907  0.3749557948511627
  0.2500005586802837  0.9728572047424912  0.3749555577290810
  0.7499995693981112  0.4728570609143125  0.3749557948056269
  0.7499994476791854  0.9728572044335627  0.3749555576841328
  0.0000000041656372  0.3750000610646330  0.4257220368143930
  0.0000000027285928  0.8749999796200812  0.4257223490157136
  0.5000000033150360  0.3750004974282142  0.4257216403540556
  0.5000000047239467  0.8749995312808734  0.4257212986814107
  0.2499980932544187  0.0271496282881327  0.4583143839127350
  0.2499815698124436  0.5271449266438613  0.4583145037562252
  0.7500019143738228  0.0271496279407560  0.4583143839057949
  0.7500184375481563  0.5271449257658530  0.4583145037516781
  0.0000000041987790  0.3749997404237501  0.4909455321358579
 -0.0000000017274985  0.8750003072317631  0.4909455451100327
  0.5000000026089287  0.3750003145237587  0.4909458822173118
  0.5000000085753012  0.8749997334100432  0.4909458736975296
  0.2499980858279802  0.2228506097762851  0.4583143913424712
  0.2499815722820632  0.7228553128297920  0.4583145124502234
  0.7500019213231639  0.2228506099078853  0.4583143913373229
  0.7500184348900112  0.7228553136712635  0.4583145124153305
  0.0000000022434730  0.1250000199614444  0.5090158194470117
  0.0000000032323872  0.6249999893275101  0.5090261512949438
  0.5000000046808510  0.1250000231855025  0.5090161499536284
  0.5000000043020225  0.6249999583261754  0.5090068965941165
  0.2499767571009088  0.2771355705230487  0.5416519587238151
  0.2500739612055117  0.7771451759230183  0.5416542461667165
  0.7500232516277313  0.2771355696304310  0.5416519592749972
  0.7499260488448953  0.7771451753046680  0.5416542460062027
  0.0000000023331440  0.1250000886545858  0.5742639390079158
  0.0000000092958652  0.6249999961693232  0.5742063866234473
  0.5000000042796465  0.1250001117247151  0.5742638925438940
  0.5000000032862663  0.6250000264410972  0.5742744242132842
  0.2500739910451962  0.4728549915012912  0.5416542531935785
  0.2499767215826103  0.9728647328090273  0.5416519580724303
  0.7499260191515328  0.4728549917760477  0.5416542534037030
  0.7500232866302076  0.9728647334269811  0.5416519581736541
  0.0000000143094779  0.3750035288616076  0.5923883945779692
 -0.0000000502171036  0.8749965530758230  0.5923883397853383
  0.4999999963226108  0.3749937747240781  0.5923860800229339
  0.5000000579025787  0.8750062454696176  0.5923860286431671
  0.2499987206051182  0.0278706688021674  0.6238512589748071
  0.2499812724674416  0.5278778307753195  0.6238635704907072
  0.7500009900240151  0.0278709869559691  0.6238511797025247
  0.7500183502234800  0.5278778261614383  0.6238635743635621
 -0.0000001888951836  0.3750142818806483  0.6576107486664313
 -0.0000000577653281  0.8749857461369914  0.6576107644195712
  0.5000002043490164  0.3750074356953558  0.6576103492745177
  0.5000000751496211  0.8749926025935050  0.6576103680680382
  0.2499997300958695  0.2221273594637117  0.6238507935304941
  0.2499813136967557  0.7221224478742695  0.6238633422293873
  0.7500011877803446  0.2221272257431712  0.6238507512662963
  0.7500181652285182  0.7221224347739840  0.6238633425042931
  0.0000000104025749  0.1249999066594954  0.6722398066556712
  0.4999999972566176  0.1249999586636263  0.6722405110292642
  0.4999999979038545  0.6249999060283102  0.6722456961030799
 
  0.00000000E+00  0.00000000E+00  0.00000000E+00
  0.00000000E+00  0.00000000E+00  0.00000000E+00
  0.00000000E+00  0.00000000E+00  0.00000000E+00
  0.00000000E+00  0.00000000E+00  0.00000000E+00
  0.00000000E+00  0.00000000E+00  0.00000000E+00
  0.00000000E+00  0.00000000E+00  0.00000000E+00
  0.00000000E+00  0.00000000E+00  0.00000000E+00
  0.00000000E+00  0.00000000E+00  0.00000000E+00
  0.00000000E+00  0.00000000E+00  0.00000000E+00
  0.00000000E+00  0.00000000E+00  0.00000000E+00
  0.00000000E+00  0.00000000E+00  0.00000000E+00
  0.00000000E+00  0.00000000E+00  0.00000000E+00
  0.00000000E+00  0.00000000E+00  0.00000000E+00
  0.00000000E+00  0.00000000E+00  0.00000000E+00
  0.00000000E+00  0.00000000E+00  0.00000000E+00
  0.00000000E+00  0.00000000E+00  0.00000000E+00
  0.00000000E+00  0.00000000E+00  0.00000000E+00
  0.00000000E+00  0.00000000E+00  0.00000000E+00
  0.00000000E+00  0.00000000E+00  0.00000000E+00
  0.00000000E+00  0.00000000E+00  0.00000000E+00
  0.00000000E+00  0.00000000E+00  0.00000000E+00
  0.00000000E+00  0.00000000E+00  0.00000000E+00
  0.00000000E+00  0.00000000E+00  0.00000000E+00
  0.00000000E+00  0.00000000E+00  0.00000000E+00
  0.00000000E+00  0.00000000E+00  0.00000000E+00
  0.00000000E+00  0.00000000E+00  0.00000000E+00
  0.00000000E+00  0.00000000E+00  0.00000000E+00
  0.00000000E+00  0.00000000E+00  0.00000000E+00
  0.00000000E+00  0.00000000E+00  0.00000000E+00
  0.00000000E+00  0.00000000E+00  0.00000000E+00
  0.00000000E+00  0.00000000E+00  0.00000000E+00
  0.00000000E+00  0.00000000E+00  0.00000000E+00
  0.00000000E+00  0.00000000E+00  0.00000000E+00
  0.00000000E+00  0.00000000E+00  0.00000000E+00
  0.00000000E+00  0.00000000E+00  0.00000000E+00
  0.00000000E+00  0.00000000E+00  0.00000000E+00
  0.00000000E+00  0.00000000E+00  0.00000000E+00
  0.00000000E+00  0.00000000E+00  0.00000000E+00
  0.00000000E+00  0.00000000E+00  0.00000000E+00
  0.00000000E+00  0.00000000E+00  0.00000000E+00
  0.00000000E+00  0.00000000E+00  0.00000000E+00
  0.00000000E+00  0.00000000E+00  0.00000000E+00
  0.00000000E+00  0.00000000E+00  0.00000000E+00
  0.00000000E+00  0.00000000E+00  0.00000000E+00
  0.00000000E+00  0.00000000E+00  0.00000000E+00
  0.00000000E+00  0.00000000E+00  0.00000000E+00
  0.00000000E+00  0.00000000E+00  0.00000000E+00
  0.00000000E+00  0.00000000E+00  0.00000000E+00
  0.00000000E+00  0.00000000E+00  0.00000000E+00
  0.00000000E+00  0.00000000E+00  0.00000000E+00
  0.00000000E+00  0.00000000E+00  0.00000000E+00
  0.00000000E+00  0.00000000E+00  0.00000000E+00
  0.00000000E+00  0.00000000E+00  0.00000000E+00
  0.00000000E+00  0.00000000E+00  0.00000000E+00
  0.00000000E+00  0.00000000E+00  0.00000000E+00
  0.00000000E+00  0.00000000E+00  0.00000000E+00
  0.00000000E+00  0.00000000E+00  0.00000000E+00
  0.00000000E+00  0.00000000E+00  0.00000000E+00
  0.00000000E+00  0.00000000E+00  0.00000000E+00
  0.00000000E+00  0.00000000E+00  0.00000000E+00
  0.00000000E+00  0.00000000E+00  0.00000000E+00
  0.00000000E+00  0.00000000E+00  0.00000000E+00
  0.00000000E+00  0.00000000E+00  0.00000000E+00
  0.00000000E+00  0.00000000E+00  0.00000000E+00
  0.00000000E+00  0.00000000E+00  0.00000000E+00
  0.00000000E+00  0.00000000E+00  0.00000000E+00
  0.00000000E+00  0.00000000E+00  0.00000000E+00
  0.00000000E+00  0.00000000E+00  0.00000000E+00
  0.00000000E+00  0.00000000E+00  0.00000000E+00
  0.00000000E+00  0.00000000E+00  0.00000000E+00
  0.00000000E+00  0.00000000E+00  0.00000000E+00
  0.00000000E+00  0.00000000E+00  0.00000000E+00
  0.00000000E+00  0.00000000E+00  0.00000000E+00
  0.00000000E+00  0.00000000E+00  0.00000000E+00
  0.00000000E+00  0.00000000E+00  0.00000000E+00
  0.00000000E+00  0.00000000E+00  0.00000000E+00
  0.00000000E+00  0.00000000E+00  0.00000000E+00
  0.00000000E+00  0.00000000E+00  0.00000000E+00
  0.00000000E+00  0.00000000E+00  0.00000000E+00
  0.00000000E+00  0.00000000E+00  0.00000000E+00
  0.00000000E+00  0.00000000E+00  0.00000000E+00
  0.00000000E+00  0.00000000E+00  0.00000000E+00
  0.00000000E+00  0.00000000E+00  0.00000000E+00
  0.00000000E+00  0.00000000E+00  0.00000000E+00
  0.00000000E+00  0.00000000E+00  0.00000000E+00
  0.00000000E+00  0.00000000E+00  0.00000000E+00
  0.00000000E+00  0.00000000E+00  0.00000000E+00
  0.00000000E+00  0.00000000E+00  0.00000000E+00
  0.00000000E+00  0.00000000E+00  0.00000000E+00
  0.00000000E+00  0.00000000E+00  0.00000000E+00
  0.00000000E+00  0.00000000E+00  0.00000000E+00
  0.00000000E+00  0.00000000E+00  0.00000000E+00
  0.00000000E+00  0.00000000E+00  0.00000000E+00
  0.00000000E+00  0.00000000E+00  0.00000000E+00
  0.00000000E+00  0.00000000E+00  0.00000000E+00
  0.00000000E+00  0.00000000E+00  0.00000000E+00
  0.00000000E+00  0.00000000E+00  0.00000000E+00
  0.00000000E+00  0.00000000E+00  0.00000000E+00
  0.00000000E+00  0.00000000E+00  0.00000000E+00
