H8 Ir32 O72                             
   1.00000000000000     
     9.0898780000000006    0.0000000000000000    0.0000000000000000
     0.0000000000000000   11.1045669999999994   -0.0793000000000000
     0.0000000000000000    0.0000000000000000   31.3300599999999996
   H    Ir   O 
     8    32    72
Direct
  0.3292653767224422  0.4391532385382671  0.6913829140524761
  0.3292654264973935  0.9391534920616578  0.6913828165861783
  0.8292653819807755  0.4391532639947711  0.6913829230624504
  0.8292650579396789  0.9391542848936429  0.6913828135537218
  0.9163460877556575  0.1902547752038390  0.6914515510473140
  0.9163743991734244  0.6902482837308471  0.6914558996013800
  0.4163426453240183  0.1902555294881164  0.6914508812537610
  0.4163735954416919  0.6902473259420483  0.6914557147050243
  0.2641500168800415  0.3277040177056575  0.3750663230491401
  0.2641499066085464  0.8277036113589780  0.3750662845539172
  0.7641500500464108  0.3277035188962872  0.3750663826891609
  0.7641508138302447  0.8277056886290050  0.3750664206779398
  0.9904137391092823  0.0773827025870388  0.3749133677061231
  0.9904130204750543  0.5773822115177689  0.3749135273374196
  0.4904104026797645  0.0773820827745462  0.3749133634988913
  0.4904116265017527  0.5773824643384776  0.3749133309068560
  0.2484477814403188  0.0011205680383666  0.4573057657429923
  0.2484503318125998  0.5011229770986280  0.4573043553355469
  0.7484515112900028  0.0011247113381984  0.4573037467142957
  0.7484500675201413  0.5011232311123860  0.4573043296553360
  0.0029822491721831  0.2511469459025844  0.4576409745511754
  0.0029820621917803  0.7511463487469213  0.4576406670252993
  0.5029818409621805  0.2511462375980516  0.4576407106649871
  0.5029829230956913  0.7511465778046950  0.4576409481594564
  0.2500751252172126  0.1637233364685274  0.5416957088847069
  0.2500755471073229  0.6637227901939408  0.5416957413444548
  0.7500752479729663  0.1637228118276760  0.5416957823820350
  0.7500747391003745  0.6637225499963247  0.5416958344141737
  0.0001585546578033  0.4141423273366849  0.5418937682047165
  0.0001584174613909  0.9141425764917395  0.5418936584788739
  0.5001586675722651  0.4141421475925859  0.5418937663211776
  0.5001585819794504  0.9141422371205979  0.5418935996651963
  0.2401306280252366  0.3374741282275933  0.6260758995248189
  0.2401314887264014  0.8374737937602079  0.6260762827886724
  0.7401329662231931  0.3374754278634357  0.6260755324248247
  0.7401344575250713  0.8374753545868026  0.6260760242951332
  0.0057164942576095  0.0889447042504311  0.6260792940685594
  0.0057160154077290  0.5889435976896060  0.6260787739730842
  0.5057133582352289  0.0889505174376011  0.6260753225479825
  0.5057145838265927  0.5889390843885985  0.6260788570143428
  0.3500596148151088  0.1885343452815665  0.3509971719971091
  0.3500596540250179  0.6885342012071767  0.3509971267520242
  0.8500596696608129  0.1885342957045545  0.3509971656932226
  0.8500571972298834  0.6885412848750441  0.3509989318161951
  0.0959087672865682  0.2316779561825713  0.3993192245016601
  0.0959112230264044  0.7316790356678119  0.3993193816836140
  0.5959081263538683  0.2316772000914583  0.3993191439575801
  0.5959084176282222  0.7316772039350962  0.3993191306275559
  0.1533010299605966  0.4814998367135229  0.3992573323739200
  0.1533011482862622  0.9814999842380175  0.3992574200430310
  0.6533010616267186  0.4814999571489501  0.3992573845697916
  0.6533009909052646  0.9814999292109686  0.3992573317562693
  0.4043729660600947  0.4345542659246237  0.3493739702009165
  0.4043730312270742  0.9345542216591266  0.3493739881601551
  0.9043729492795907  0.4345544174375239  0.3493739643792929
  0.9043730759031591  0.9345544391157821  0.3493739544470371
  0.3430551630914734  0.3530806855829999  0.4339914350746917
  0.3430547482590837  0.8530806925887273  0.4339914870968538
  0.8430551672610551  0.3530806800072370  0.4339914300065090
  0.8430549815112071  0.8530807587816056  0.4339914467474966
  0.0958130851346076  0.4003217412562188  0.4844701497649941
  0.0958130351970733  0.9003216739712183  0.4844702497528045
  0.5958131464134500  0.4003218762147224  0.4844701989373552
  0.5958132898007786  0.9003218567472441  0.4844702491509794
  0.1533602622088698  0.1485395115404005  0.4839848059450834
  0.1533627714905508  0.6485393702929946  0.4839843454426755
  0.6533603698967839  0.1485394516431989  0.4839847192076009
  0.6533623788261902  0.6485393665064902  0.4839844693713652
  0.4042126081067072  0.1018316745725716  0.4333288687567025
  0.4042102347619904  0.6018277963051006  0.4333277322434689
  0.9042105060429571  0.1018277044394729  0.4333276102700970
  0.9042103096506700  0.6018278445072559  0.4333277430781494
  0.3468470896642853  0.0175475953216688  0.5159754072374529
  0.3468471429300872  0.5175475538437458  0.5159752698614382
  0.8468468335718935  0.0175475505274086  0.5159752960282359
  0.8468471995164982  0.5175474818719052  0.5159754618993838
  0.0957371052825251  0.0647876837790410  0.5667225804828899
  0.0957371523748286  0.5647876971925231  0.5667225403865059
  0.5957372644226643  0.0647877561420634  0.5667224554581998
  0.5957369752185566  0.5647875933827806  0.5667225587497940
  0.1569894934326858  0.3134765761868308  0.5660402058870946
  0.1569895099447519  0.8134765977369212  0.5660402664432835
  0.6569893063984439  0.3134765843534638  0.5660402432980307
  0.6569864767996128  0.8134761911217926  0.5660405731524853
  0.4042345459631866  0.2661380019214132  0.5154878515051249
  0.4042345430763155  0.7661379923123509  0.5154878322468438
  0.9042345826076168  0.2661380497239259  0.5154878570107098
  0.9042344858334749  0.7661379481390536  0.5154878290209627
  0.3428531247212592  0.1865082588608378  0.6006481507456976
  0.3428529070504898  0.6865080400761218  0.6006481525215956
  0.8428536070541716  0.1865082115695986  0.6006481961556760
  0.8428499000286438  0.6865076186343471  0.6006480202374463
  0.0961878366792786  0.2322022061907775  0.6492575478820571
  0.0961876257313738  0.7322022617292534  0.6492574632564958
  0.5961752519105958  0.2321960434672448  0.6492587574582904
  0.5961728726998162  0.7322185712070667  0.6492596919751207
  0.1501055696165495  0.4861670285930135  0.6468917691522239
  0.1501055290699599  0.9861670090046705  0.6468917555913470
  0.6501054966372170  0.4861671154037025  0.6468917457794493
  0.6501050363530787  0.9861674086646964  0.6468916535141992
  0.4039645573886689  0.4351586932786752  0.6000249999077069
  0.4039645436230044  0.9351589273922728  0.6000249943632565
  0.9039647129487880  0.4351588354904524  0.6000249918621197
  0.9039646947621769  0.9351589207534077  0.6000250354584403
  0.3392959193967111  0.3551520988330822  0.6811971601789262
  0.3392958711151750  0.8551520728485987  0.6811971584743084
  0.8392959625038128  0.3551520349917763  0.6811971678499966
  0.8392953239018650  0.8551525188559709  0.6811971312800851
  0.9101261216615991  0.1054941198921082  0.6812164678258631
  0.9101354400176359  0.6054905939826783  0.6812149753214158
  0.4101258878469131  0.1054939340748694  0.6812163712036642
  0.4101343315688103  0.6054908887635818  0.6812149910664546
 
  0.00000000E+00  0.00000000E+00  0.00000000E+00
  0.00000000E+00  0.00000000E+00  0.00000000E+00
  0.00000000E+00  0.00000000E+00  0.00000000E+00
  0.00000000E+00  0.00000000E+00  0.00000000E+00
  0.00000000E+00  0.00000000E+00  0.00000000E+00
  0.00000000E+00  0.00000000E+00  0.00000000E+00
  0.00000000E+00  0.00000000E+00  0.00000000E+00
  0.00000000E+00  0.00000000E+00  0.00000000E+00
  0.00000000E+00  0.00000000E+00  0.00000000E+00
  0.00000000E+00  0.00000000E+00  0.00000000E+00
  0.00000000E+00  0.00000000E+00  0.00000000E+00
  0.00000000E+00  0.00000000E+00  0.00000000E+00
  0.00000000E+00  0.00000000E+00  0.00000000E+00
  0.00000000E+00  0.00000000E+00  0.00000000E+00
  0.00000000E+00  0.00000000E+00  0.00000000E+00
  0.00000000E+00  0.00000000E+00  0.00000000E+00
  0.00000000E+00  0.00000000E+00  0.00000000E+00
  0.00000000E+00  0.00000000E+00  0.00000000E+00
  0.00000000E+00  0.00000000E+00  0.00000000E+00
  0.00000000E+00  0.00000000E+00  0.00000000E+00
  0.00000000E+00  0.00000000E+00  0.00000000E+00
  0.00000000E+00  0.00000000E+00  0.00000000E+00
  0.00000000E+00  0.00000000E+00  0.00000000E+00
  0.00000000E+00  0.00000000E+00  0.00000000E+00
  0.00000000E+00  0.00000000E+00  0.00000000E+00
  0.00000000E+00  0.00000000E+00  0.00000000E+00
  0.00000000E+00  0.00000000E+00  0.00000000E+00
  0.00000000E+00  0.00000000E+00  0.00000000E+00
  0.00000000E+00  0.00000000E+00  0.00000000E+00
  0.00000000E+00  0.00000000E+00  0.00000000E+00
  0.00000000E+00  0.00000000E+00  0.00000000E+00
  0.00000000E+00  0.00000000E+00  0.00000000E+00
  0.00000000E+00  0.00000000E+00  0.00000000E+00
  0.00000000E+00  0.00000000E+00  0.00000000E+00
  0.00000000E+00  0.00000000E+00  0.00000000E+00
  0.00000000E+00  0.00000000E+00  0.00000000E+00
  0.00000000E+00  0.00000000E+00  0.00000000E+00
  0.00000000E+00  0.00000000E+00  0.00000000E+00
  0.00000000E+00  0.00000000E+00  0.00000000E+00
  0.00000000E+00  0.00000000E+00  0.00000000E+00
  0.00000000E+00  0.00000000E+00  0.00000000E+00
  0.00000000E+00  0.00000000E+00  0.00000000E+00
  0.00000000E+00  0.00000000E+00  0.00000000E+00
  0.00000000E+00  0.00000000E+00  0.00000000E+00
  0.00000000E+00  0.00000000E+00  0.00000000E+00
  0.00000000E+00  0.00000000E+00  0.00000000E+00
  0.00000000E+00  0.00000000E+00  0.00000000E+00
  0.00000000E+00  0.00000000E+00  0.00000000E+00
  0.00000000E+00  0.00000000E+00  0.00000000E+00
  0.00000000E+00  0.00000000E+00  0.00000000E+00
  0.00000000E+00  0.00000000E+00  0.00000000E+00
  0.00000000E+00  0.00000000E+00  0.00000000E+00
  0.00000000E+00  0.00000000E+00  0.00000000E+00
  0.00000000E+00  0.00000000E+00  0.00000000E+00
  0.00000000E+00  0.00000000E+00  0.00000000E+00
  0.00000000E+00  0.00000000E+00  0.00000000E+00
  0.00000000E+00  0.00000000E+00  0.00000000E+00
  0.00000000E+00  0.00000000E+00  0.00000000E+00
  0.00000000E+00  0.00000000E+00  0.00000000E+00
  0.00000000E+00  0.00000000E+00  0.00000000E+00
  0.00000000E+00  0.00000000E+00  0.00000000E+00
  0.00000000E+00  0.00000000E+00  0.00000000E+00
  0.00000000E+00  0.00000000E+00  0.00000000E+00
  0.00000000E+00  0.00000000E+00  0.00000000E+00
  0.00000000E+00  0.00000000E+00  0.00000000E+00
  0.00000000E+00  0.00000000E+00  0.00000000E+00
  0.00000000E+00  0.00000000E+00  0.00000000E+00
  0.00000000E+00  0.00000000E+00  0.00000000E+00
  0.00000000E+00  0.00000000E+00  0.00000000E+00
  0.00000000E+00  0.00000000E+00  0.00000000E+00
  0.00000000E+00  0.00000000E+00  0.00000000E+00
  0.00000000E+00  0.00000000E+00  0.00000000E+00
  0.00000000E+00  0.00000000E+00  0.00000000E+00
  0.00000000E+00  0.00000000E+00  0.00000000E+00
  0.00000000E+00  0.00000000E+00  0.00000000E+00
  0.00000000E+00  0.00000000E+00  0.00000000E+00
  0.00000000E+00  0.00000000E+00  0.00000000E+00
  0.00000000E+00  0.00000000E+00  0.00000000E+00
  0.00000000E+00  0.00000000E+00  0.00000000E+00
  0.00000000E+00  0.00000000E+00  0.00000000E+00
  0.00000000E+00  0.00000000E+00  0.00000000E+00
  0.00000000E+00  0.00000000E+00  0.00000000E+00
  0.00000000E+00  0.00000000E+00  0.00000000E+00
  0.00000000E+00  0.00000000E+00  0.00000000E+00
  0.00000000E+00  0.00000000E+00  0.00000000E+00
  0.00000000E+00  0.00000000E+00  0.00000000E+00
  0.00000000E+00  0.00000000E+00  0.00000000E+00
  0.00000000E+00  0.00000000E+00  0.00000000E+00
  0.00000000E+00  0.00000000E+00  0.00000000E+00
  0.00000000E+00  0.00000000E+00  0.00000000E+00
  0.00000000E+00  0.00000000E+00  0.00000000E+00
  0.00000000E+00  0.00000000E+00  0.00000000E+00
  0.00000000E+00  0.00000000E+00  0.00000000E+00
  0.00000000E+00  0.00000000E+00  0.00000000E+00
  0.00000000E+00  0.00000000E+00  0.00000000E+00
  0.00000000E+00  0.00000000E+00  0.00000000E+00
  0.00000000E+00  0.00000000E+00  0.00000000E+00
  0.00000000E+00  0.00000000E+00  0.00000000E+00
  0.00000000E+00  0.00000000E+00  0.00000000E+00
  0.00000000E+00  0.00000000E+00  0.00000000E+00
  0.00000000E+00  0.00000000E+00  0.00000000E+00
  0.00000000E+00  0.00000000E+00  0.00000000E+00
  0.00000000E+00  0.00000000E+00  0.00000000E+00
  0.00000000E+00  0.00000000E+00  0.00000000E+00
  0.00000000E+00  0.00000000E+00  0.00000000E+00
  0.00000000E+00  0.00000000E+00  0.00000000E+00
  0.00000000E+00  0.00000000E+00  0.00000000E+00
  0.00000000E+00  0.00000000E+00  0.00000000E+00
  0.00000000E+00  0.00000000E+00  0.00000000E+00
  0.00000000E+00  0.00000000E+00  0.00000000E+00
  0.00000000E+00  0.00000000E+00  0.00000000E+00
  0.00000000E+00  0.00000000E+00  0.00000000E+00
