H4 Ir32 O68                             
   1.00000000000000     
     6.3790139999999997    0.0000000000000000    0.0000000000000000
     0.0000000000000000   12.8550290000000000    0.0000000000000000
     0.0000000000000000    0.0000000000000000   38.5650860000000009
   H    Ir   O 
     4    32    68
Direct
  0.0000000497456487  0.0495379687660620  0.6811020154101532
 -0.0000000380140973  0.5495385608263362  0.6811019792883539
  0.4999999522306679  0.0495378995875045  0.6811020707887006
  0.5000000409114140  0.5495385874963186  0.6811019555392571
  0.2500000014620311  0.1250839736359923  0.3734880467560728
  0.2500000004436576  0.6250853467463598  0.3734877403071474
  0.7499999979701257  0.1250839589379951  0.3734879861399106
  0.7499999988936461  0.6250853510215227  0.3734877338251638
 -0.0000000492369632  0.3751688855002682  0.3755365038948508
 -0.0000000587701808  0.8751725307498186  0.3755375170961490
  0.5000000492670937  0.3751688877033693  0.3755365007592467
  0.5000000589117110  0.8751725315542617  0.3755375140571244
  0.2499999984089499  0.3753343461902194  0.4578528531488907
  0.2499999968175869  0.8753421312741235  0.4578534423083960
  0.7500000015794145  0.3753343342002972  0.4578528544046028
  0.7500000031427017  0.8753421210589338  0.4578534221295913
  0.0000000053443655  0.1252389304292409  0.4578976905531142
 -0.0000000208104631  0.6252393844731940  0.4578976062262426
  0.4999999946168491  0.1252389306350397  0.4578976914753923
  0.5000000207103731  0.6252393842192855  0.4578976060740624
  0.2500000103276471  0.1251972875171466  0.5412024941808912
  0.2499999991381390  0.6252013033501271  0.5412021041843792
  0.7499999895262073  0.1251973046773182  0.5412024966729335
  0.7500000006945211  0.6251984043387513  0.5412023557723282
  0.0000000903773752  0.3755110045274508  0.5414630652522167
  0.0000013124308847  0.8755120272212712  0.5414633129824733
  0.4999999087987078  0.3755110128218935  0.5414630654379812
  0.4999986864984144  0.8755120227660651  0.5414633108696197
  0.2500000003330178  0.3745466195102535  0.6256993507879408
  0.2499999950568280  0.8745479427593127  0.6257005216640704
  0.7499999997189010  0.3745466213841385  0.6256993326762781
  0.7500000050128691  0.8745465997423743  0.6257024458724396
 -0.0000001847919909  0.1253686240735674  0.6246859680234237
 -0.0000001139204871  0.6253653122432113  0.6246847291813270
  0.5000001848985169  0.1253686887257442  0.6246859683370121
  0.5000001136284762  0.6253652879747517  0.6246847340953481
 -0.0000001594996567  0.1250107152975566  0.3423411312553714
 -0.0000000186577775  0.6250106902210685  0.3423411337907283
  0.5000001594355907  0.1250107153949910  0.3423411315173767
  0.5000000186037458  0.6250106902078565  0.3423411337636001
  0.2500000003047452  0.2771462346461913  0.3749413956883795
  0.2499999993261990  0.7771462112328684  0.3749414351198089
  0.7499999996857689  0.2771462682308135  0.3749413851912959
  0.7500000006508225  0.7771460590444506  0.3749414521507549
 -0.0000002423121230  0.1250097146492335  0.4075618740096579
 -0.0000000166730706  0.6250097011272829  0.4075618914865548
  0.5000002421735856  0.1250097147901310  0.4075618734873110
  0.5000000164932494  0.6250097011399022  0.4075618916682828
  0.2499999995196424  0.4728833596438651  0.3749405058834244
  0.2499999996078781  0.9728821541967489  0.3749400184156434
  0.7500000004366494  0.4728833459331593  0.3749405039453517
  0.7500000004517363  0.9728833137372905  0.3749405152577753
 -0.0000000166086915  0.3750080111177789  0.4256871968576503
 -0.0000000937844432  0.8750079524742185  0.4256873667816988
  0.5000000166225935  0.3750080112907824  0.4256871968584979
  0.5000000938314035  0.8750079523873872  0.4256873667371431
  0.2499999996115990  0.0271709437075441  0.4583079496579933
  0.2500000012380700  0.5271705406325607  0.4583079567294090
  0.7500000004594143  0.0271709535299071  0.4583079519565884
  0.7499999988979835  0.5271705410308075  0.4583079581629945
  0.0000000087630124  0.3750114035777152  0.4909255406919311
  0.0000004844284329  0.8750114316781326  0.4909255992573391
  0.4999999911654731  0.3750114037375833  0.4909255407468803
  0.4999995154788760  0.8750114316393778  0.4909255989967627
  0.2500000003959839  0.2228782598776017  0.4583074337680171
  0.2500000011467054  0.7228780638924431  0.4583074111370524
  0.7499999994856550  0.2228782557823011  0.4583074342075311
  0.7499999987085514  0.7228780588380551  0.4583074101051829
 -0.0000000178856461  0.1250100898298542  0.5090103564293096
 -0.0000000269633047  0.6250101397556771  0.5090103347791385
  0.5000000178522191  0.1250100901180637  0.5090103558356075
  0.5000000269132117  0.6250101396355296  0.5090103347074062
  0.2499999980137714  0.2771720555893050  0.5416421228302803
  0.2499999982349139  0.7771723781098813  0.5416421008987038
  0.7500000019416102  0.2771720570911819  0.5416421227162747
  0.7500000017141158  0.7771722567808693  0.5416420908786794
 -0.0000000170267866  0.1250297384283537  0.5741949513914248
 -0.0000000097717522  0.6250296231237206  0.5741949176992136
  0.5000000169395460  0.1250297394421540  0.5741949460739104
  0.5000000095863424  0.6250296226199230  0.5741949206103441
  0.2499999988459208  0.4728874706332858  0.5416411992587984
  0.2499999978385881  0.9728876299369222  0.5416412004644773
  0.7500000009672890  0.4728873423097701  0.5416412015798040
  0.7500000019748931  0.9728876203266851  0.5416411863635784
  0.0000000052042162  0.3750074990556395  0.5923577128233884
 -0.0000171218172046  0.8750075467350213  0.5923568508908752
  0.4999999947831237  0.3750075014342789  0.5923577126332024
  0.5000171217559557  0.8750075444496966  0.5923568511384674
  0.2499999876117570  0.0271310717176725  0.6249548631774948
  0.2500000102490909  0.5271308366753942  0.6249548441045961
  0.7500000123846904  0.0271310982678971  0.6249548838676667
  0.7499999896960161  0.5271308342746936  0.6249548430428409
 -0.0000000013461566  0.3750413138124666  0.6575952883246444
  0.0000001491915010  0.8750412613902819  0.6575954125407472
  0.5000000014038737  0.3750413151360428  0.6575952883798005
  0.4999998508021142  0.8750412597228908  0.6575954126548267
  0.2499999800512291  0.2228755388347615  0.6249702660882670
  0.2500000138987344  0.7228752742731169  0.6249702042772378
  0.7500000200156935  0.2228755386380197  0.6249702659405301
  0.7499999860599823  0.7228752176303285  0.6249702262898666
 -0.0000000195446873  0.1209460241449694  0.6736592474145743
 -0.0000000141895006  0.6209417160116532  0.6736590293215647
  0.5000000196442717  0.1209459552072180  0.6736592592609523
  0.5000000142302037  0.6209417455296357  0.6736590238544060
 
  0.00000000E+00  0.00000000E+00  0.00000000E+00
  0.00000000E+00  0.00000000E+00  0.00000000E+00
  0.00000000E+00  0.00000000E+00  0.00000000E+00
  0.00000000E+00  0.00000000E+00  0.00000000E+00
  0.00000000E+00  0.00000000E+00  0.00000000E+00
  0.00000000E+00  0.00000000E+00  0.00000000E+00
  0.00000000E+00  0.00000000E+00  0.00000000E+00
  0.00000000E+00  0.00000000E+00  0.00000000E+00
  0.00000000E+00  0.00000000E+00  0.00000000E+00
  0.00000000E+00  0.00000000E+00  0.00000000E+00
  0.00000000E+00  0.00000000E+00  0.00000000E+00
  0.00000000E+00  0.00000000E+00  0.00000000E+00
  0.00000000E+00  0.00000000E+00  0.00000000E+00
  0.00000000E+00  0.00000000E+00  0.00000000E+00
  0.00000000E+00  0.00000000E+00  0.00000000E+00
  0.00000000E+00  0.00000000E+00  0.00000000E+00
  0.00000000E+00  0.00000000E+00  0.00000000E+00
  0.00000000E+00  0.00000000E+00  0.00000000E+00
  0.00000000E+00  0.00000000E+00  0.00000000E+00
  0.00000000E+00  0.00000000E+00  0.00000000E+00
  0.00000000E+00  0.00000000E+00  0.00000000E+00
  0.00000000E+00  0.00000000E+00  0.00000000E+00
  0.00000000E+00  0.00000000E+00  0.00000000E+00
  0.00000000E+00  0.00000000E+00  0.00000000E+00
  0.00000000E+00  0.00000000E+00  0.00000000E+00
  0.00000000E+00  0.00000000E+00  0.00000000E+00
  0.00000000E+00  0.00000000E+00  0.00000000E+00
  0.00000000E+00  0.00000000E+00  0.00000000E+00
  0.00000000E+00  0.00000000E+00  0.00000000E+00
  0.00000000E+00  0.00000000E+00  0.00000000E+00
  0.00000000E+00  0.00000000E+00  0.00000000E+00
  0.00000000E+00  0.00000000E+00  0.00000000E+00
  0.00000000E+00  0.00000000E+00  0.00000000E+00
  0.00000000E+00  0.00000000E+00  0.00000000E+00
  0.00000000E+00  0.00000000E+00  0.00000000E+00
  0.00000000E+00  0.00000000E+00  0.00000000E+00
  0.00000000E+00  0.00000000E+00  0.00000000E+00
  0.00000000E+00  0.00000000E+00  0.00000000E+00
  0.00000000E+00  0.00000000E+00  0.00000000E+00
  0.00000000E+00  0.00000000E+00  0.00000000E+00
  0.00000000E+00  0.00000000E+00  0.00000000E+00
  0.00000000E+00  0.00000000E+00  0.00000000E+00
  0.00000000E+00  0.00000000E+00  0.00000000E+00
  0.00000000E+00  0.00000000E+00  0.00000000E+00
  0.00000000E+00  0.00000000E+00  0.00000000E+00
  0.00000000E+00  0.00000000E+00  0.00000000E+00
  0.00000000E+00  0.00000000E+00  0.00000000E+00
  0.00000000E+00  0.00000000E+00  0.00000000E+00
  0.00000000E+00  0.00000000E+00  0.00000000E+00
  0.00000000E+00  0.00000000E+00  0.00000000E+00
  0.00000000E+00  0.00000000E+00  0.00000000E+00
  0.00000000E+00  0.00000000E+00  0.00000000E+00
  0.00000000E+00  0.00000000E+00  0.00000000E+00
  0.00000000E+00  0.00000000E+00  0.00000000E+00
  0.00000000E+00  0.00000000E+00  0.00000000E+00
  0.00000000E+00  0.00000000E+00  0.00000000E+00
  0.00000000E+00  0.00000000E+00  0.00000000E+00
  0.00000000E+00  0.00000000E+00  0.00000000E+00
  0.00000000E+00  0.00000000E+00  0.00000000E+00
  0.00000000E+00  0.00000000E+00  0.00000000E+00
  0.00000000E+00  0.00000000E+00  0.00000000E+00
  0.00000000E+00  0.00000000E+00  0.00000000E+00
  0.00000000E+00  0.00000000E+00  0.00000000E+00
  0.00000000E+00  0.00000000E+00  0.00000000E+00
  0.00000000E+00  0.00000000E+00  0.00000000E+00
  0.00000000E+00  0.00000000E+00  0.00000000E+00
  0.00000000E+00  0.00000000E+00  0.00000000E+00
  0.00000000E+00  0.00000000E+00  0.00000000E+00
  0.00000000E+00  0.00000000E+00  0.00000000E+00
  0.00000000E+00  0.00000000E+00  0.00000000E+00
  0.00000000E+00  0.00000000E+00  0.00000000E+00
  0.00000000E+00  0.00000000E+00  0.00000000E+00
  0.00000000E+00  0.00000000E+00  0.00000000E+00
  0.00000000E+00  0.00000000E+00  0.00000000E+00
  0.00000000E+00  0.00000000E+00  0.00000000E+00
  0.00000000E+00  0.00000000E+00  0.00000000E+00
  0.00000000E+00  0.00000000E+00  0.00000000E+00
  0.00000000E+00  0.00000000E+00  0.00000000E+00
  0.00000000E+00  0.00000000E+00  0.00000000E+00
  0.00000000E+00  0.00000000E+00  0.00000000E+00
  0.00000000E+00  0.00000000E+00  0.00000000E+00
  0.00000000E+00  0.00000000E+00  0.00000000E+00
  0.00000000E+00  0.00000000E+00  0.00000000E+00
  0.00000000E+00  0.00000000E+00  0.00000000E+00
  0.00000000E+00  0.00000000E+00  0.00000000E+00
  0.00000000E+00  0.00000000E+00  0.00000000E+00
  0.00000000E+00  0.00000000E+00  0.00000000E+00
  0.00000000E+00  0.00000000E+00  0.00000000E+00
  0.00000000E+00  0.00000000E+00  0.00000000E+00
  0.00000000E+00  0.00000000E+00  0.00000000E+00
  0.00000000E+00  0.00000000E+00  0.00000000E+00
  0.00000000E+00  0.00000000E+00  0.00000000E+00
  0.00000000E+00  0.00000000E+00  0.00000000E+00
  0.00000000E+00  0.00000000E+00  0.00000000E+00
  0.00000000E+00  0.00000000E+00  0.00000000E+00
  0.00000000E+00  0.00000000E+00  0.00000000E+00
  0.00000000E+00  0.00000000E+00  0.00000000E+00
  0.00000000E+00  0.00000000E+00  0.00000000E+00
  0.00000000E+00  0.00000000E+00  0.00000000E+00
  0.00000000E+00  0.00000000E+00  0.00000000E+00
  0.00000000E+00  0.00000000E+00  0.00000000E+00
  0.00000000E+00  0.00000000E+00  0.00000000E+00
  0.00000000E+00  0.00000000E+00  0.00000000E+00
  0.00000000E+00  0.00000000E+00  0.00000000E+00
