ALGO = Fast
EDIFF = 0.0001
EDIFFG = -0.05
ENCUT = 500
GGA = Pe
IBRION = 2
ISIF = 0
ISMEAR = 1
ISPIN = 2
ISTART = 1
ISYM = 0
LASPH = True
LCHARG = False
LMAXMIX = 4
LORBIT = 11
LREAL = True
LVTOT = False
LWAVE = True
MAGMOM = 2*0.1 64*5.0 2*0.6
NCORE = 4
NELM = 80
NELMIN = 8
NSW = 300
PREC = Accurate
SIGMA = 0.08000000000000002
SYMPREC = 1e-10
