H1 Ir32 O72                             
   1.00000000000000     
     9.0898780000000006    0.0000000000000000    0.0000000000000000
     0.0000000000000000   11.1045669999999994   -0.0793000000000000
     0.0000000000000000    0.0000000000000000   31.3300599999999996
   H    Ir   O 
     1    32    72
Direct
  0.3504896383412229  0.7660919922924893  0.6937150581731184
  0.2631266459132845  0.3287468479526907  0.3750816549836913
  0.2632288025825594  0.8288287814765420  0.3751038383907008
  0.7631842119588105  0.3288806905400958  0.3751032240416896
  0.7631792925830774  0.8288696697441413  0.3751040147678865
  0.9879197103644149  0.0790352083661268  0.3758026977863159
  0.9878915286164879  0.5790427827505571  0.3757934256617352
  0.4879382008879592  0.0790345598341100  0.3758017725753164
  0.4881506776519379  0.5786721906006973  0.3754763591718431
  0.2474816414016710  0.0014995622426661  0.4576224155147278
  0.2478937155541646  0.5021909751340019  0.4572244759946965
  0.7474607761844660  0.0015011991159688  0.4576108410514285
  0.7473680742274565  0.5014694627476475  0.4576506922203906
  0.0016641020585877  0.2529078575207747  0.4577861487945468
  0.0016111853188980  0.7528792602400427  0.4577909842967476
  0.5016364157634697  0.2529000511842953  0.4577895753145255
  0.5017356520559437  0.7528705918139391  0.4577267521741876
  0.2508952000581445  0.1669546449984631  0.5410873133630928
  0.2508948408335236  0.6666285435079629  0.5410694429901530
  0.7508898585846143  0.1669796542412323  0.5410810072669479
  0.7507955033976813  0.6669588806436308  0.5410708426043377
  0.0010711743644603  0.4166074506485408  0.5422970979737488
  0.0011761312790355  0.9166644730119548  0.5422876569655594
  0.5007467271774059  0.4167742112252742  0.5422779118565411
  0.5008234014065517  0.9166057153445977  0.5423859862772181
  0.2479010788788121  0.3340630982280591  0.6276746693494492
  0.2430674335963101  0.8337198821890804  0.6263662497511807
  0.7476522471499052  0.3338458935530516  0.6277699133615974
  0.7478973713748073  0.8342439027554054  0.6276353230328722
  0.0057500303767698  0.0850460785583280  0.6271084248536787
  0.0054294120652153  0.5849660437757942  0.6270389086308710
  0.5054492839864120  0.0846795856842731  0.6270380556617698
  0.5056015343136273  0.5850572389552615  0.6270107947549621
  0.3465860356851364  0.1881205754104367  0.3510867582792602
  0.3465075406509266  0.6881383650587771  0.3510685150828400
  0.8465876519323279  0.1881333886150546  0.3510874398825257
  0.8465830902336648  0.6881338174169407  0.3510871730071488
  0.0956082094328898  0.2318480953315444  0.3993452069473546
  0.0956086519008814  0.7318487978897831  0.3993433294256887
  0.5956089426369618  0.2318498674360007  0.3993433766407781
  0.5956233202897316  0.7318628812359261  0.3993336714788354
  0.1529253303095189  0.4817670097052614  0.3993177748252753
  0.1529349673056424  0.9817640953069465  0.3993298946513161
  0.6529298161318480  0.4817562925650081  0.3993246862058730
  0.6529309630744149  0.9817665757606593  0.3993295883834174
  0.4027597764683766  0.4369245258272892  0.3504943770107342
  0.4033370340600502  0.9382005878374428  0.3510314116758526
  0.9033495136061586  0.4382158244600595  0.3510376675232381
  0.9033380507229266  0.9382008430856178  0.3510315299002025
  0.3426156555169722  0.3531791698326780  0.4339947115755540
  0.3426357620940560  0.8531787228522131  0.4339977379647098
  0.8426324098064889  0.3531768435575863  0.4339983909315694
  0.8426308726103773  0.8531792592985130  0.4339977770227256
  0.0958131551327773  0.4005269286328252  0.4845225574044549
  0.0957787252831372  0.9005091748211337  0.4845283953452697
  0.5957682684996074  0.4005089464992943  0.4845317200770711
  0.5957644541046606  0.9005027049697092  0.4845327135412367
  0.1530825766271698  0.1490084586285924  0.4840135683617580
  0.1529920083048235  0.6490067965687878  0.4840011560896135
  0.6530305879083498  0.1489872892376940  0.4840116856352545
  0.6530333376124515  0.6489893852549484  0.4840099553397107
  0.4045254563442670  0.1016884773305737  0.4340045877318159
  0.4041676393669856  0.6020639335706605  0.4334523859518317
  0.9045206919002903  0.1016908602592899  0.4340053622136861
  0.9045020916133756  0.6016887632270591  0.4340042602203470
  0.3467583343443178  0.0180215906542254  0.5159852053526947
  0.3458723778969868  0.5183353449926228  0.5155448763027232
  0.8467755809064290  0.0180036731183737  0.5159790847347753
  0.8467609827464276  0.5180030144495511  0.5159781194118132
  0.0959875444682124  0.0659194272210971  0.5666958648531569
  0.0959846680546468  0.5658872537267308  0.5666953789403086
  0.5959864410646485  0.0659074213365822  0.5666975188357705
  0.5959599585050984  0.5659400768277830  0.5666981143137437
  0.1570343907563456  0.3136239734083982  0.5660519216099170
  0.1568614937540113  0.8136284185578838  0.5660430245922951
  0.6569864172040285  0.3136289888226146  0.5660530462413811
  0.6570269607973724  0.8136240798617189  0.5660525794898067
  0.4045467989044174  0.2679692103958278  0.5159791063330568
  0.4045573518872228  0.7679573325124398  0.5159790599950013
  0.9045475763648979  0.2679624394787139  0.5159796821245770
  0.9045534080365011  0.7679610616753129  0.5159787401510719
  0.3449202439992307  0.1868424724103866  0.6001749319480598
  0.3448600848490312  0.6869160921481461  0.6001395165999825
  0.8449296309279721  0.1868292851205024  0.6001591257938078
  0.8449002736257415  0.6868981003178011  0.6001801849047805
  0.0960125119595192  0.2322739023016713  0.6492444394690893
  0.0961120216051158  0.7320900807188053  0.6492826966033489
  0.5959312814335798  0.2322427418514398  0.6492572093890512
  0.5961736242944903  0.7321847411655030  0.6492222411685451
  0.1501639887392822  0.4832854771527516  0.6477541968969427
  0.1502177024337007  0.9832218827640996  0.6477255693178745
  0.6501540604606377  0.4832840599262982  0.6477548347475698
  0.6501758817197321  0.9832832127475309  0.6477526025712474
  0.4023482922693217  0.4367228836696136  0.6001315621345659
  0.4024721956807568  0.9364438909712295  0.6003070554883194
  0.9023520730561266  0.4366879814721582  0.6001346960927988
  0.9023587242102128  0.9367085126840153  0.6001402212901195
  0.3432405700964764  0.3490305282003672  0.6784602798169062
  0.8432591093117806  0.3490179460744332  0.6784604401501827
  0.8432467299944015  0.8490179406829552  0.6784599678889961
  0.9068428995967173  0.0935025478218180  0.6761241927247869
  0.9068511583931552  0.5934945850717104  0.6761238668699212
  0.4068756446925701  0.0935599930524725  0.6761237754198286
  0.4064861774535769  0.5942508735535504  0.6762647006647055
  0.3461167460303917  0.8458767227188404  0.6810244728319931
 
  0.00000000E+00  0.00000000E+00  0.00000000E+00
  0.00000000E+00  0.00000000E+00  0.00000000E+00
  0.00000000E+00  0.00000000E+00  0.00000000E+00
  0.00000000E+00  0.00000000E+00  0.00000000E+00
  0.00000000E+00  0.00000000E+00  0.00000000E+00
  0.00000000E+00  0.00000000E+00  0.00000000E+00
  0.00000000E+00  0.00000000E+00  0.00000000E+00
  0.00000000E+00  0.00000000E+00  0.00000000E+00
  0.00000000E+00  0.00000000E+00  0.00000000E+00
  0.00000000E+00  0.00000000E+00  0.00000000E+00
  0.00000000E+00  0.00000000E+00  0.00000000E+00
  0.00000000E+00  0.00000000E+00  0.00000000E+00
  0.00000000E+00  0.00000000E+00  0.00000000E+00
  0.00000000E+00  0.00000000E+00  0.00000000E+00
  0.00000000E+00  0.00000000E+00  0.00000000E+00
  0.00000000E+00  0.00000000E+00  0.00000000E+00
  0.00000000E+00  0.00000000E+00  0.00000000E+00
  0.00000000E+00  0.00000000E+00  0.00000000E+00
  0.00000000E+00  0.00000000E+00  0.00000000E+00
  0.00000000E+00  0.00000000E+00  0.00000000E+00
  0.00000000E+00  0.00000000E+00  0.00000000E+00
  0.00000000E+00  0.00000000E+00  0.00000000E+00
  0.00000000E+00  0.00000000E+00  0.00000000E+00
  0.00000000E+00  0.00000000E+00  0.00000000E+00
  0.00000000E+00  0.00000000E+00  0.00000000E+00
  0.00000000E+00  0.00000000E+00  0.00000000E+00
  0.00000000E+00  0.00000000E+00  0.00000000E+00
  0.00000000E+00  0.00000000E+00  0.00000000E+00
  0.00000000E+00  0.00000000E+00  0.00000000E+00
  0.00000000E+00  0.00000000E+00  0.00000000E+00
  0.00000000E+00  0.00000000E+00  0.00000000E+00
  0.00000000E+00  0.00000000E+00  0.00000000E+00
  0.00000000E+00  0.00000000E+00  0.00000000E+00
  0.00000000E+00  0.00000000E+00  0.00000000E+00
  0.00000000E+00  0.00000000E+00  0.00000000E+00
  0.00000000E+00  0.00000000E+00  0.00000000E+00
  0.00000000E+00  0.00000000E+00  0.00000000E+00
  0.00000000E+00  0.00000000E+00  0.00000000E+00
  0.00000000E+00  0.00000000E+00  0.00000000E+00
  0.00000000E+00  0.00000000E+00  0.00000000E+00
  0.00000000E+00  0.00000000E+00  0.00000000E+00
  0.00000000E+00  0.00000000E+00  0.00000000E+00
  0.00000000E+00  0.00000000E+00  0.00000000E+00
  0.00000000E+00  0.00000000E+00  0.00000000E+00
  0.00000000E+00  0.00000000E+00  0.00000000E+00
  0.00000000E+00  0.00000000E+00  0.00000000E+00
  0.00000000E+00  0.00000000E+00  0.00000000E+00
  0.00000000E+00  0.00000000E+00  0.00000000E+00
  0.00000000E+00  0.00000000E+00  0.00000000E+00
  0.00000000E+00  0.00000000E+00  0.00000000E+00
  0.00000000E+00  0.00000000E+00  0.00000000E+00
  0.00000000E+00  0.00000000E+00  0.00000000E+00
  0.00000000E+00  0.00000000E+00  0.00000000E+00
  0.00000000E+00  0.00000000E+00  0.00000000E+00
  0.00000000E+00  0.00000000E+00  0.00000000E+00
  0.00000000E+00  0.00000000E+00  0.00000000E+00
  0.00000000E+00  0.00000000E+00  0.00000000E+00
  0.00000000E+00  0.00000000E+00  0.00000000E+00
  0.00000000E+00  0.00000000E+00  0.00000000E+00
  0.00000000E+00  0.00000000E+00  0.00000000E+00
  0.00000000E+00  0.00000000E+00  0.00000000E+00
  0.00000000E+00  0.00000000E+00  0.00000000E+00
  0.00000000E+00  0.00000000E+00  0.00000000E+00
  0.00000000E+00  0.00000000E+00  0.00000000E+00
  0.00000000E+00  0.00000000E+00  0.00000000E+00
  0.00000000E+00  0.00000000E+00  0.00000000E+00
  0.00000000E+00  0.00000000E+00  0.00000000E+00
  0.00000000E+00  0.00000000E+00  0.00000000E+00
  0.00000000E+00  0.00000000E+00  0.00000000E+00
  0.00000000E+00  0.00000000E+00  0.00000000E+00
  0.00000000E+00  0.00000000E+00  0.00000000E+00
  0.00000000E+00  0.00000000E+00  0.00000000E+00
  0.00000000E+00  0.00000000E+00  0.00000000E+00
  0.00000000E+00  0.00000000E+00  0.00000000E+00
  0.00000000E+00  0.00000000E+00  0.00000000E+00
  0.00000000E+00  0.00000000E+00  0.00000000E+00
  0.00000000E+00  0.00000000E+00  0.00000000E+00
  0.00000000E+00  0.00000000E+00  0.00000000E+00
  0.00000000E+00  0.00000000E+00  0.00000000E+00
  0.00000000E+00  0.00000000E+00  0.00000000E+00
  0.00000000E+00  0.00000000E+00  0.00000000E+00
  0.00000000E+00  0.00000000E+00  0.00000000E+00
  0.00000000E+00  0.00000000E+00  0.00000000E+00
  0.00000000E+00  0.00000000E+00  0.00000000E+00
  0.00000000E+00  0.00000000E+00  0.00000000E+00
  0.00000000E+00  0.00000000E+00  0.00000000E+00
  0.00000000E+00  0.00000000E+00  0.00000000E+00
  0.00000000E+00  0.00000000E+00  0.00000000E+00
  0.00000000E+00  0.00000000E+00  0.00000000E+00
  0.00000000E+00  0.00000000E+00  0.00000000E+00
  0.00000000E+00  0.00000000E+00  0.00000000E+00
  0.00000000E+00  0.00000000E+00  0.00000000E+00
  0.00000000E+00  0.00000000E+00  0.00000000E+00
  0.00000000E+00  0.00000000E+00  0.00000000E+00
  0.00000000E+00  0.00000000E+00  0.00000000E+00
  0.00000000E+00  0.00000000E+00  0.00000000E+00
  0.00000000E+00  0.00000000E+00  0.00000000E+00
  0.00000000E+00  0.00000000E+00  0.00000000E+00
  0.00000000E+00  0.00000000E+00  0.00000000E+00
  0.00000000E+00  0.00000000E+00  0.00000000E+00
  0.00000000E+00  0.00000000E+00  0.00000000E+00
  0.00000000E+00  0.00000000E+00  0.00000000E+00
  0.00000000E+00  0.00000000E+00  0.00000000E+00
  0.00000000E+00  0.00000000E+00  0.00000000E+00
  0.00000000E+00  0.00000000E+00  0.00000000E+00
