H1 Ir32 O69                             
   1.00000000000000     
     6.3790139999999997    0.0000000000000000    0.0000000000000000
     0.0000000000000000   12.8550290000000000    0.0000000000000000
     0.0000000000000000    0.0000000000000000   38.5650860000000009
   H    Ir   O 
     1    32    69
Direct
  0.9431317357637514  0.7714486257083887  0.6775932272448154
  0.2491921050548122  0.1250253809257000  0.3735426505853055
  0.2491555359509244  0.6250279589748730  0.3735400735999397
  0.7491860357542515  0.1250273720775849  0.3735405983285410
  0.7492103396970400  0.6250272341795576  0.3735387939874141
 -0.0015250910512296  0.3750279123185010  0.3765808457059969
 -0.0015200531056809  0.8750337146049449  0.3765776880977261
  0.4984739106593596  0.3750268776970251  0.3765814337912445
  0.4984796124790485  0.8750374000681154  0.3765795894867952
  0.2481984886049020  0.3751207522088023  0.4581812647118799
  0.2482439974429016  0.8753008384353254  0.4581774240632356
  0.7481772922371143  0.3751238667860632  0.4581846468923829
  0.7482778950609514  0.8753055820845143  0.4581746406809138
 -0.0008768782878442  0.1250809663827106  0.4579726734097921
 -0.0009097544912448  0.6250757689916079  0.4579732710431397
  0.4991067659705338  0.1250754667614564  0.4579743978647067
  0.4991215010649663  0.6250602911898488  0.4579702206826030
  0.2485176039236083  0.1252504251110425  0.5414041004384446
  0.2495547394782948  0.6245900516461254  0.5413077445119799
  0.7485955679988465  0.1252312044102029  0.5413928936670453
  0.7483516704261517  0.6253879519277115  0.5414193325090816
 -0.0014223278344445  0.3751566944904848  0.5419329344316978
 -0.0014977293067229  0.8749598625009289  0.5418994322441458
  0.4986814892964203  0.3749784874064482  0.5419340250026914
  0.4983201767365103  0.8752428528592068  0.5418483275360445
  0.2495846188183044  0.3752974475355696  0.6263495647723992
  0.2509242151646048  0.8747736805746178  0.6255669402900165
  0.7494543822184234  0.3751338394890660  0.6263679095338824
  0.7470406545121685  0.8755115984233787  0.6253388606636338
 -0.0008863749417392  0.1248909405507913  0.6265164817248744
  0.0003074105593320  0.6260681899079568  0.6247005541118048
  0.4989560961098097  0.1250468829553622  0.6265162044579953
  0.4993948386038514  0.6245911233281859  0.6265280566603868
 -0.0002545379075049  0.1250016877692860  0.3423529194211261
 -0.0002550172389797  0.6250017704308223  0.3423522461974452
  0.4997449415458397  0.1250015977772371  0.3423527993101407
  0.4997446031334739  0.6250013399998064  0.3423527534809611
  0.2496354243584738  0.2771526326574762  0.3749630679550686
  0.2496366994926019  0.7771522293980757  0.3749632106733174
  0.7496351561229886  0.2771527190589969  0.3749630731888375
  0.7496361075449735  0.7771523189560141  0.3749632092682850
 -0.0004171436248003  0.1250015913676526  0.4075718403390025
 -0.0004303321404628  0.6250015688395221  0.4075715503989958
  0.4995779294285224  0.1250014201939150  0.4075713526716095
  0.4995912468593252  0.6250014461615563  0.4075746057195924
  0.2496380942295425  0.4728540394509730  0.3749629631728371
  0.2496377464029331  0.9728530525095654  0.3749629174782720
  0.7496375079233563  0.4728539017690042  0.3749629451038818
  0.7496375182628148  0.9728531928814930  0.3749629064466812
 -0.0005072001667420  0.3750017458148726  0.4257521291204304
 -0.0004975250099023  0.8750011273223233  0.4257511090042814
  0.4994944963480484  0.3750024350528273  0.4257513632276004
  0.4995046487019453  0.8750007189461665  0.4257500194966809
  0.2496417285322625  0.0271633806954530  0.4583193178995600
  0.2496372695689459  0.5271579519277318  0.4583194258041356
  0.7496436665520076  0.0271641615532115  0.4583193678427289
  0.7496489202721913  0.5271576549856533  0.4583191806324247
 -0.0004045378086449  0.3750026544601282  0.4909524588841548
 -0.0004070000746342  0.8750033156290915  0.4909502633487271
  0.4995982258379008  0.3750037738691234  0.4909526799634470
  0.4995930878421051  0.8750018429288905  0.4909518394214114
  0.2496513152471495  0.2228564481356572  0.4583191707939493
  0.2496488633012477  0.7228609763458727  0.4583192212037727
  0.7496524082048622  0.2228568479988745  0.4583191312990956
  0.7496608810502327  0.7228610525770508  0.4583192115859078
 -0.0003382616897068  0.1250041289002947  0.5090257008186253
 -0.0003088531559912  0.6250019096274197  0.5090259814084315
  0.4996599388994913  0.1250039231935380  0.5090259089616836
  0.4997137651489658  0.6250025418170490  0.5090234204917032
  0.2496146012350229  0.2771500912318448  0.5416561628003148
  0.2496261307178608  0.7771324814961927  0.5416563353625989
  0.7496255979578190  0.2771501062483319  0.5416561293979699
  0.7495889385152756  0.7771580759913335  0.5416562291711373
 -0.0003516642156199  0.1250030445607007  0.5742735222650577
 -0.0005196114796965  0.6249915212043415  0.5741991582752877
  0.4996469816520836  0.1250041985807184  0.5742730223965244
  0.4996674255148550  0.6250000534044228  0.5742730796085490
  0.2496586171542092  0.4728506429216640  0.5416554426883852
  0.2495885356810434  0.9728724200626669  0.5416559393461648
  0.7496212712035698  0.4728731833976695  0.5416560147247254
  0.7496283461996602  0.9728727646590408  0.5416560976944085
 -0.0003040378361953  0.3750028472598799  0.5923947991860397
 -0.0002885636937172  0.8750039820835913  0.5923775677311824
  0.4997131680760515  0.3749988994551102  0.5923927552894009
  0.4996234400872336  0.8750116647514052  0.5923695375515876
  0.2499646095208538  0.0278715350777889  0.6238545822118912
  0.2499920416732071  0.5278693637976963  0.6238580698955821
  0.7499555653156185  0.0278858485169166  0.6238532136118962
  0.7499864153686775  0.5278847854615977  0.6238553752954252
 -0.0001704328477345  0.3750052492134412  0.6576141649265025
 -0.0006325165489698  0.8749409247719004  0.6576124627490497
  0.4997516698667983  0.3750052554186372  0.6576150373614955
  0.4996913310989960  0.8749978189353086  0.6575834532948051
  0.2499587347760805  0.2221332367837433  0.6238545070614320
  0.2499663564583472  0.7221321905729438  0.6238550113627038
  0.7499662127321002  0.2221273880630100  0.6238543573595519
  0.7499515890142218  0.7221488011403819  0.6238581896640774
 -0.0004566354960308  0.1250045236998285  0.6722657171828393
  0.4995447729328539  0.1250020844958778  0.6722658605664789
  0.4994300234694510  0.6249988157771030  0.6722661796910885
  0.0066403100918736  0.6215693037266938  0.6736595990586316
  0.9374635232413938  0.7049395537234769  0.6932973604498684
 
  0.00000000E+00  0.00000000E+00  0.00000000E+00
  0.00000000E+00  0.00000000E+00  0.00000000E+00
  0.00000000E+00  0.00000000E+00  0.00000000E+00
  0.00000000E+00  0.00000000E+00  0.00000000E+00
  0.00000000E+00  0.00000000E+00  0.00000000E+00
  0.00000000E+00  0.00000000E+00  0.00000000E+00
  0.00000000E+00  0.00000000E+00  0.00000000E+00
  0.00000000E+00  0.00000000E+00  0.00000000E+00
  0.00000000E+00  0.00000000E+00  0.00000000E+00
  0.00000000E+00  0.00000000E+00  0.00000000E+00
  0.00000000E+00  0.00000000E+00  0.00000000E+00
  0.00000000E+00  0.00000000E+00  0.00000000E+00
  0.00000000E+00  0.00000000E+00  0.00000000E+00
  0.00000000E+00  0.00000000E+00  0.00000000E+00
  0.00000000E+00  0.00000000E+00  0.00000000E+00
  0.00000000E+00  0.00000000E+00  0.00000000E+00
  0.00000000E+00  0.00000000E+00  0.00000000E+00
  0.00000000E+00  0.00000000E+00  0.00000000E+00
  0.00000000E+00  0.00000000E+00  0.00000000E+00
  0.00000000E+00  0.00000000E+00  0.00000000E+00
  0.00000000E+00  0.00000000E+00  0.00000000E+00
  0.00000000E+00  0.00000000E+00  0.00000000E+00
  0.00000000E+00  0.00000000E+00  0.00000000E+00
  0.00000000E+00  0.00000000E+00  0.00000000E+00
  0.00000000E+00  0.00000000E+00  0.00000000E+00
  0.00000000E+00  0.00000000E+00  0.00000000E+00
  0.00000000E+00  0.00000000E+00  0.00000000E+00
  0.00000000E+00  0.00000000E+00  0.00000000E+00
  0.00000000E+00  0.00000000E+00  0.00000000E+00
  0.00000000E+00  0.00000000E+00  0.00000000E+00
  0.00000000E+00  0.00000000E+00  0.00000000E+00
  0.00000000E+00  0.00000000E+00  0.00000000E+00
  0.00000000E+00  0.00000000E+00  0.00000000E+00
  0.00000000E+00  0.00000000E+00  0.00000000E+00
  0.00000000E+00  0.00000000E+00  0.00000000E+00
  0.00000000E+00  0.00000000E+00  0.00000000E+00
  0.00000000E+00  0.00000000E+00  0.00000000E+00
  0.00000000E+00  0.00000000E+00  0.00000000E+00
  0.00000000E+00  0.00000000E+00  0.00000000E+00
  0.00000000E+00  0.00000000E+00  0.00000000E+00
  0.00000000E+00  0.00000000E+00  0.00000000E+00
  0.00000000E+00  0.00000000E+00  0.00000000E+00
  0.00000000E+00  0.00000000E+00  0.00000000E+00
  0.00000000E+00  0.00000000E+00  0.00000000E+00
  0.00000000E+00  0.00000000E+00  0.00000000E+00
  0.00000000E+00  0.00000000E+00  0.00000000E+00
  0.00000000E+00  0.00000000E+00  0.00000000E+00
  0.00000000E+00  0.00000000E+00  0.00000000E+00
  0.00000000E+00  0.00000000E+00  0.00000000E+00
  0.00000000E+00  0.00000000E+00  0.00000000E+00
  0.00000000E+00  0.00000000E+00  0.00000000E+00
  0.00000000E+00  0.00000000E+00  0.00000000E+00
  0.00000000E+00  0.00000000E+00  0.00000000E+00
  0.00000000E+00  0.00000000E+00  0.00000000E+00
  0.00000000E+00  0.00000000E+00  0.00000000E+00
  0.00000000E+00  0.00000000E+00  0.00000000E+00
  0.00000000E+00  0.00000000E+00  0.00000000E+00
  0.00000000E+00  0.00000000E+00  0.00000000E+00
  0.00000000E+00  0.00000000E+00  0.00000000E+00
  0.00000000E+00  0.00000000E+00  0.00000000E+00
  0.00000000E+00  0.00000000E+00  0.00000000E+00
  0.00000000E+00  0.00000000E+00  0.00000000E+00
  0.00000000E+00  0.00000000E+00  0.00000000E+00
  0.00000000E+00  0.00000000E+00  0.00000000E+00
  0.00000000E+00  0.00000000E+00  0.00000000E+00
  0.00000000E+00  0.00000000E+00  0.00000000E+00
  0.00000000E+00  0.00000000E+00  0.00000000E+00
  0.00000000E+00  0.00000000E+00  0.00000000E+00
  0.00000000E+00  0.00000000E+00  0.00000000E+00
  0.00000000E+00  0.00000000E+00  0.00000000E+00
  0.00000000E+00  0.00000000E+00  0.00000000E+00
  0.00000000E+00  0.00000000E+00  0.00000000E+00
  0.00000000E+00  0.00000000E+00  0.00000000E+00
  0.00000000E+00  0.00000000E+00  0.00000000E+00
  0.00000000E+00  0.00000000E+00  0.00000000E+00
  0.00000000E+00  0.00000000E+00  0.00000000E+00
  0.00000000E+00  0.00000000E+00  0.00000000E+00
  0.00000000E+00  0.00000000E+00  0.00000000E+00
  0.00000000E+00  0.00000000E+00  0.00000000E+00
  0.00000000E+00  0.00000000E+00  0.00000000E+00
  0.00000000E+00  0.00000000E+00  0.00000000E+00
  0.00000000E+00  0.00000000E+00  0.00000000E+00
  0.00000000E+00  0.00000000E+00  0.00000000E+00
  0.00000000E+00  0.00000000E+00  0.00000000E+00
  0.00000000E+00  0.00000000E+00  0.00000000E+00
  0.00000000E+00  0.00000000E+00  0.00000000E+00
  0.00000000E+00  0.00000000E+00  0.00000000E+00
  0.00000000E+00  0.00000000E+00  0.00000000E+00
  0.00000000E+00  0.00000000E+00  0.00000000E+00
  0.00000000E+00  0.00000000E+00  0.00000000E+00
  0.00000000E+00  0.00000000E+00  0.00000000E+00
  0.00000000E+00  0.00000000E+00  0.00000000E+00
  0.00000000E+00  0.00000000E+00  0.00000000E+00
  0.00000000E+00  0.00000000E+00  0.00000000E+00
  0.00000000E+00  0.00000000E+00  0.00000000E+00
  0.00000000E+00  0.00000000E+00  0.00000000E+00
  0.00000000E+00  0.00000000E+00  0.00000000E+00
  0.00000000E+00  0.00000000E+00  0.00000000E+00
  0.00000000E+00  0.00000000E+00  0.00000000E+00
  0.00000000E+00  0.00000000E+00  0.00000000E+00
  0.00000000E+00  0.00000000E+00  0.00000000E+00
  0.00000000E+00  0.00000000E+00  0.00000000E+00
