H1 Ir32 O69                             
   1.00000000000000     
     6.3790139999999997    0.0000000000000000    0.0000000000000000
     0.0000000000000000   12.8550290000000000    0.0000000000000000
     0.0000000000000000    0.0000000000000000   38.5650860000000009
   H    Ir   O 
     1    32    69
Direct
  0.2998823220748537  0.6694774381683595  0.6790646134519068
  0.2499399790506687  0.1250904694770516  0.3735794860657405
  0.2499030402714936  0.6250999025009591  0.3735829105725991
  0.7499374594435074  0.1250877166767775  0.3735790215580590
  0.7499139348315621  0.6251022255259187  0.3735799088504023
  0.0001558154965417  0.3751882999604833  0.3765793529154997
  0.0003306466748020  0.8751948803781729  0.3765836548530831
  0.5001555401642466  0.3751893350629665  0.3765781389498957
  0.5003021456120512  0.8751881577454298  0.3765818468464710
  0.2505162463214361  0.3756218939682104  0.4581368901476995
  0.2506075418469282  0.8756549582165639  0.4581580810429000
  0.7505812732920765  0.3756339983156765  0.4581468132677128
  0.7505645273738587  0.8756135496459554  0.4581354030271892
 -0.0001688554428817  0.1253038037069792  0.4579743589403195
 -0.0001400318194831  0.6252901528366686  0.4579667693436374
  0.4998428268998029  0.1252994220366102  0.4579739350792713
  0.4998941084082173  0.6252687000662327  0.4579619955294875
  0.2498232545839931  0.1253207470503112  0.5413307590221396
  0.2501885586276232  0.6255495502143347  0.5413035224370639
  0.7498945747321228  0.1254168010592014  0.5413363167069400
  0.7488167470621396  0.6248566353034899  0.5413432283475272
  0.0003762426988185  0.3752232491198411  0.5419810565626280
  0.0002186175418298  0.8751731978287491  0.5419827321457430
  0.5001119858009987  0.3750930088001749  0.5419860349095148
  0.5004028239040326  0.8754029492365237  0.5419708569187889
  0.2499305444589044  0.3748805570956698  0.6263810264034715
  0.2498525416791431  0.8754659450008536  0.6263040108631461
  0.7496769935919665  0.3753105691474982  0.6263886616187582
  0.7496731093558708  0.8749893501381022  0.6263701592244250
 -0.0002068488116710  0.1251499051471364  0.6264862710437796
  0.0032865983735629  0.6258788716903279  0.6241732067396598
  0.5000354824665635  0.1251836487011685  0.6264796960675600
  0.5025052297852767  0.6243240238296603  0.6252789552686590
 -0.0000311511063478  0.1250074699941701  0.3423545352339282
 -0.0000303947825817  0.6250074828051668  0.3423546075899416
  0.4999687062896508  0.1250073890040345  0.3423545097913694
  0.4999656842347614  0.6250074072044266  0.3423545799550953
  0.2500126507601524  0.2771615482078377  0.3749654234986893
  0.2500284140314144  0.7771617459938724  0.3749654800689369
  0.7500114331555043  0.2771614810581587  0.3749654064674968
  0.7500289484131664  0.7771621129748766  0.3749655396558375
 -0.0000186258386441  0.1250086570830467  0.4075846671185772
 -0.0001478595421011  0.6250081170857039  0.4075787718566475
  0.4999824599642689  0.1250086426712729  0.4075846205410856
  0.4999748343220317  0.6250085970469316  0.4075846527872933
  0.2500100425597856  0.4728665644405423  0.3749645414372824
  0.2500286660060306  0.9728667597877230  0.3749645614981814
  0.7500102021546633  0.4728668311867988  0.3749645577034214
  0.7500280785665552  0.9728664736430354  0.3749646026570676
  0.0000733369851468  0.3750067093829098  0.4257426987585805
  0.0002010352265796  0.8750078767289140  0.4257477329605054
  0.5000803115965028  0.3750068631474391  0.4257427125202556
  0.5000806119866255  0.8750068525314649  0.4257429248316024
  0.2500063554713004  0.0271826063431089  0.4583209471697332
  0.2500048585202154  0.5271819119393631  0.4583207713742388
  0.7500044115607608  0.0271816580597936  0.4583207994622539
  0.7500099411572343  0.5271820263757152  0.4583211057517758
  0.0000742930668886  0.3750121402200138  0.4909556366915903
  0.0000689360940683  0.8750125903864535  0.4909560181091254
  0.5000642524396850  0.3750116375169579  0.4909555603820342
  0.5000813265842826  0.8750126708078233  0.4909559914270356
  0.2500034248708551  0.2228845697739773  0.4583205082768217
  0.2500103482843653  0.7228844191486612  0.4583207884156850
  0.7500044377540257  0.2228849653880746  0.4583206108417807
  0.7500087039398728  0.7228831828284387  0.4583205807780344
 -0.0000479099660375  0.1250119767456151  0.5090243001500134
 -0.0000580341339775  0.6250103243753464  0.5090274744647154
  0.4999552041522289  0.1250117498162880  0.5090244224361956
  0.4999188486447463  0.6250119869356280  0.5090215287142301
  0.2500068930789910  0.2771575151650026  0.5416579847027969
  0.2500501950917586  0.7771781725626478  0.5416583302946070
  0.7500288514703124  0.2771608048052663  0.5416580713734787
  0.7499935859567703  0.7771531055908298  0.5416585453332960
 -0.0000250969238435  0.1250118333756562  0.5742739684703363
 -0.0004005175860155  0.6250121286582356  0.5742133567248789
  0.4999771556112285  0.1250119455938689  0.5742738461440359
  0.5000227277007472  0.6250079519073458  0.5742519693437318
  0.2500215985162810  0.4728823527180949  0.5416591363791443
  0.2500129574004566  0.9728863219664211  0.5416578358394509
  0.7499752253284817  0.4728628995627387  0.5416583267718766
  0.7500341677572592  0.9728877281535320  0.5416578335545730
  0.0000062194286185  0.3750092555974801  0.5923959697193647
 -0.0000397339940541  0.8750089568145212  0.5923957997286999
  0.4999526770912109  0.3750044376469006  0.5923961969821466
  0.5000111457009678  0.8750151129487880  0.5923934893782530
  0.2499908128906367  0.0278880048748386  0.6238555387201862
  0.2500465491217805  0.5279027326030914  0.6238515272224083
  0.7499954150451975  0.0278767508466697  0.6238568590222540
  0.7500094857495755  0.5278736335676805  0.6238582812803423
 -0.0000276115521369  0.3750103728511794  0.6576188545647035
 -0.0000134328971652  0.8750094491865807  0.6576178844767291
  0.4999624996542869  0.3750099445144984  0.6576179486900016
  0.4999550399551534  0.8749993992570181  0.6576191002014383
  0.2499940117845130  0.2221316329281051  0.6238555040783241
  0.2500929399381038  0.7221389823033408  0.6238605485243929
  0.7499965406246950  0.2221406543434776  0.6238551100602239
  0.7500090723310612  0.7221441283938169  0.6238504667819155
 -0.0000154304386599  0.1250082646512409  0.6722592007295355
  0.4999826125916210  0.1250084129129464  0.6722597211840263
  0.5004943311965672  0.6251006202929360  0.6722184866836044
 -0.0065934788721510  0.6250309101460563  0.6725142614440826
  0.1561138314732225  0.6563286709675343  0.6927791994964347
 
  0.00000000E+00  0.00000000E+00  0.00000000E+00
  0.00000000E+00  0.00000000E+00  0.00000000E+00
  0.00000000E+00  0.00000000E+00  0.00000000E+00
  0.00000000E+00  0.00000000E+00  0.00000000E+00
  0.00000000E+00  0.00000000E+00  0.00000000E+00
  0.00000000E+00  0.00000000E+00  0.00000000E+00
  0.00000000E+00  0.00000000E+00  0.00000000E+00
  0.00000000E+00  0.00000000E+00  0.00000000E+00
  0.00000000E+00  0.00000000E+00  0.00000000E+00
  0.00000000E+00  0.00000000E+00  0.00000000E+00
  0.00000000E+00  0.00000000E+00  0.00000000E+00
  0.00000000E+00  0.00000000E+00  0.00000000E+00
  0.00000000E+00  0.00000000E+00  0.00000000E+00
  0.00000000E+00  0.00000000E+00  0.00000000E+00
  0.00000000E+00  0.00000000E+00  0.00000000E+00
  0.00000000E+00  0.00000000E+00  0.00000000E+00
  0.00000000E+00  0.00000000E+00  0.00000000E+00
  0.00000000E+00  0.00000000E+00  0.00000000E+00
  0.00000000E+00  0.00000000E+00  0.00000000E+00
  0.00000000E+00  0.00000000E+00  0.00000000E+00
  0.00000000E+00  0.00000000E+00  0.00000000E+00
  0.00000000E+00  0.00000000E+00  0.00000000E+00
  0.00000000E+00  0.00000000E+00  0.00000000E+00
  0.00000000E+00  0.00000000E+00  0.00000000E+00
  0.00000000E+00  0.00000000E+00  0.00000000E+00
  0.00000000E+00  0.00000000E+00  0.00000000E+00
  0.00000000E+00  0.00000000E+00  0.00000000E+00
  0.00000000E+00  0.00000000E+00  0.00000000E+00
  0.00000000E+00  0.00000000E+00  0.00000000E+00
  0.00000000E+00  0.00000000E+00  0.00000000E+00
  0.00000000E+00  0.00000000E+00  0.00000000E+00
  0.00000000E+00  0.00000000E+00  0.00000000E+00
  0.00000000E+00  0.00000000E+00  0.00000000E+00
  0.00000000E+00  0.00000000E+00  0.00000000E+00
  0.00000000E+00  0.00000000E+00  0.00000000E+00
  0.00000000E+00  0.00000000E+00  0.00000000E+00
  0.00000000E+00  0.00000000E+00  0.00000000E+00
  0.00000000E+00  0.00000000E+00  0.00000000E+00
  0.00000000E+00  0.00000000E+00  0.00000000E+00
  0.00000000E+00  0.00000000E+00  0.00000000E+00
  0.00000000E+00  0.00000000E+00  0.00000000E+00
  0.00000000E+00  0.00000000E+00  0.00000000E+00
  0.00000000E+00  0.00000000E+00  0.00000000E+00
  0.00000000E+00  0.00000000E+00  0.00000000E+00
  0.00000000E+00  0.00000000E+00  0.00000000E+00
  0.00000000E+00  0.00000000E+00  0.00000000E+00
  0.00000000E+00  0.00000000E+00  0.00000000E+00
  0.00000000E+00  0.00000000E+00  0.00000000E+00
  0.00000000E+00  0.00000000E+00  0.00000000E+00
  0.00000000E+00  0.00000000E+00  0.00000000E+00
  0.00000000E+00  0.00000000E+00  0.00000000E+00
  0.00000000E+00  0.00000000E+00  0.00000000E+00
  0.00000000E+00  0.00000000E+00  0.00000000E+00
  0.00000000E+00  0.00000000E+00  0.00000000E+00
  0.00000000E+00  0.00000000E+00  0.00000000E+00
  0.00000000E+00  0.00000000E+00  0.00000000E+00
  0.00000000E+00  0.00000000E+00  0.00000000E+00
  0.00000000E+00  0.00000000E+00  0.00000000E+00
  0.00000000E+00  0.00000000E+00  0.00000000E+00
  0.00000000E+00  0.00000000E+00  0.00000000E+00
  0.00000000E+00  0.00000000E+00  0.00000000E+00
  0.00000000E+00  0.00000000E+00  0.00000000E+00
  0.00000000E+00  0.00000000E+00  0.00000000E+00
  0.00000000E+00  0.00000000E+00  0.00000000E+00
  0.00000000E+00  0.00000000E+00  0.00000000E+00
  0.00000000E+00  0.00000000E+00  0.00000000E+00
  0.00000000E+00  0.00000000E+00  0.00000000E+00
  0.00000000E+00  0.00000000E+00  0.00000000E+00
  0.00000000E+00  0.00000000E+00  0.00000000E+00
  0.00000000E+00  0.00000000E+00  0.00000000E+00
  0.00000000E+00  0.00000000E+00  0.00000000E+00
  0.00000000E+00  0.00000000E+00  0.00000000E+00
  0.00000000E+00  0.00000000E+00  0.00000000E+00
  0.00000000E+00  0.00000000E+00  0.00000000E+00
  0.00000000E+00  0.00000000E+00  0.00000000E+00
  0.00000000E+00  0.00000000E+00  0.00000000E+00
  0.00000000E+00  0.00000000E+00  0.00000000E+00
  0.00000000E+00  0.00000000E+00  0.00000000E+00
  0.00000000E+00  0.00000000E+00  0.00000000E+00
  0.00000000E+00  0.00000000E+00  0.00000000E+00
  0.00000000E+00  0.00000000E+00  0.00000000E+00
  0.00000000E+00  0.00000000E+00  0.00000000E+00
  0.00000000E+00  0.00000000E+00  0.00000000E+00
  0.00000000E+00  0.00000000E+00  0.00000000E+00
  0.00000000E+00  0.00000000E+00  0.00000000E+00
  0.00000000E+00  0.00000000E+00  0.00000000E+00
  0.00000000E+00  0.00000000E+00  0.00000000E+00
  0.00000000E+00  0.00000000E+00  0.00000000E+00
  0.00000000E+00  0.00000000E+00  0.00000000E+00
  0.00000000E+00  0.00000000E+00  0.00000000E+00
  0.00000000E+00  0.00000000E+00  0.00000000E+00
  0.00000000E+00  0.00000000E+00  0.00000000E+00
  0.00000000E+00  0.00000000E+00  0.00000000E+00
  0.00000000E+00  0.00000000E+00  0.00000000E+00
  0.00000000E+00  0.00000000E+00  0.00000000E+00
  0.00000000E+00  0.00000000E+00  0.00000000E+00
  0.00000000E+00  0.00000000E+00  0.00000000E+00
  0.00000000E+00  0.00000000E+00  0.00000000E+00
  0.00000000E+00  0.00000000E+00  0.00000000E+00
  0.00000000E+00  0.00000000E+00  0.00000000E+00
  0.00000000E+00  0.00000000E+00  0.00000000E+00
  0.00000000E+00  0.00000000E+00  0.00000000E+00
