H1 Ir32 O68                             
   1.00000000000000     
     6.3790139999999997    0.0000000000000000    0.0000000000000000
     0.0000000000000000   12.8550290000000000    0.0000000000000000
     0.0000000000000000    0.0000000000000000   38.5650860000000009
   H    Ir   O 
     1    32    68
Direct
 -0.0000000020552576  0.5501125457815534  0.6832954728528691
  0.2500010104221721  0.1250190746634827  0.3735044392129842
  0.2499684513509915  0.6250157129517688  0.3735028963813827
  0.7499989805314867  0.1250190745155367  0.3735044392983715
  0.7500315397848221  0.6250157125633162  0.3735028962482600
 -0.0000000060698277  0.3750387789142463  0.3761903364899281
 -0.0000000043258747  0.8750458574598035  0.3761918793417776
  0.4999999890486273  0.3750353637726085  0.3761962360235719
  0.4999999957426919  0.8750605143286635  0.3761970091888813
  0.2500017406335265  0.3750880999900301  0.4579467471244880
  0.2500104095763331  0.8751388406171605  0.4579468601901084
  0.7499985189129518  0.3750882280806115  0.4579467427693312
  0.7499895861389678  0.8751388390162024  0.4579468602152967
 -0.0000000239271908  0.1250643749988798  0.4579140407969123
 -0.0000000034538809  0.6250469087574426  0.4579132666563035
  0.4999999965320696  0.1250669959101271  0.4579152746586954
  0.4999999757317140  0.6250852023962593  0.4579144490785804
  0.2499969233891504  0.1250664189909636  0.5412253814266623
  0.2500060049973690  0.6249868299511945  0.5412430326920092
  0.7500030688466462  0.1250664168677920  0.5412253817668520
  0.7499939861912813  0.6249868299953201  0.5412430328335998
 -0.0000000181012554  0.3751011341413155  0.5419253024868417
 -0.0000000052451827  0.8750190970792021  0.5419347436907418
  0.4999999872019688  0.3750137134623233  0.5419245604601500
  0.4999999909421212  0.8751439359825781  0.5419254145323352
  0.2505889925555565  0.3750918071751984  0.6261405157494373
  0.2500161482821591  0.8746324591470411  0.6262950335754985
  0.7494109802284854  0.3750918196814803  0.6261405179040880
  0.7499838505545485  0.8746324547786096  0.6262950331647572
 -0.0000000079141487  0.1250582311771641  0.6262461954289825
 -0.0000000039299275  0.6239464618152601  0.6252119140805021
  0.4999999934371168  0.1249996643862879  0.6262433956511435
  0.4999999862163654  0.6255219953204082  0.6261601995038574
  0.0000000053807064  0.1250006022536867  0.3423431651989514
  0.0000000012067506  0.6250006389023263  0.3423426094892831
  0.5000000063325566  0.1250005406983163  0.3423430938720926
  0.5000000096741670  0.6250007150141844  0.3423431484908243
  0.2499998950813233  0.2771423343272774  0.3749508203679053
  0.2500004151949173  0.7771425652988773  0.3749508628945510
  0.7500001109392267  0.2771423342471707  0.3749508203695113
  0.7499995928284912  0.7771425649398396  0.3749508629224037
 -0.0000000027311501  0.1250007762156632  0.4075652794621504
 -0.0000000021597818  0.6250008700268693  0.4075653691937612
  0.5000000011445591  0.1250010047422893  0.4075650974380755
  0.5000000004869676  0.6250009322733301  0.4075663349565440
  0.2499994886969264  0.4728619595868280  0.3749506320125499
  0.2499993476403210  0.9728622402002026  0.3749505903932236
  0.7500005183569537  0.4728619600358627  0.3749506320685222
  0.7500006609433733  0.9728622404198330  0.3749505904185363
  0.0000000499476784  0.3750008051921793  0.4257139196833812
  0.0000000046094559  0.8750000876197844  0.4257143077745915
  0.5000000471149845  0.3750008836562769  0.4257142565535298
  0.5000000036468418  0.8749998127795969  0.4257140466395803
  0.2499993452999115  0.0271529186153424  0.4583105495887912
  0.2499969968965714  0.5271513812031888  0.4583106030559246
  0.7500006656913014  0.0271529185751620  0.4583105495907366
  0.7500030379033823  0.5271513857198704  0.4583106029791009
  0.0000000376218579  0.3750014734834946  0.4909405481694779
  0.0000000028374209  0.8750016120544419  0.4909410379806797
  0.5000000544149014  0.3750025827043361  0.4909419319361172
  0.5000000029486855  0.8750002485627414  0.4909415993595816
  0.2499996110073132  0.2228585751261099  0.4583104019622246
  0.2499967324718394  0.7228601831743453  0.4583105080654827
  0.7500004239466632  0.2228585798993023  0.4583104020061195
  0.7500032800332739  0.7228601828678736  0.4583105080572305
  0.0000000004109980  0.1250014462315387  0.5090113160943084
  0.0000000011129786  0.6249998544124808  0.5090117112316704
  0.5000000073345375  0.1250013743432581  0.5090114814225023
  0.5000000083070065  0.6250001839810407  0.5090133773457077
  0.2499946963080832  0.2771401827676008  0.5416483973611067
  0.2500047424186501  0.7771421630816459  0.5416479734787571
  0.7500053093254366  0.2771401824257955  0.5416483974340720
  0.7499952654229070  0.7771421636146931  0.5416479735127889
 -0.0000000180194117  0.1250012666792799  0.5742584538855059
 -0.0000000009711164  0.6250175645026728  0.5742133279109710
  0.5000000241386445  0.1250010696654745  0.5742582451879952
  0.5000000051418894  0.6250021040319612  0.5742548569209110
  0.2500031910716812  0.4728632680745171  0.5416479983572436
  0.2499982666009815  0.9728685761939767  0.5416483170620826
  0.7499968162559321  0.4728632679999094  0.5416479983081917
  0.7500017413659844  0.9728685761611168  0.5416483171333049
 -0.0000000129981901  0.3750006254492368  0.5923822296588466
 -0.0000000185218976  0.8749990391637181  0.5923844527119689
  0.5000000211103304  0.3749998783535555  0.5923797021063292
  0.5000000276003078  0.8750019149473337  0.5923829943758661
  0.2499972260580598  0.0278641908665032  0.6238475725243169
  0.2499804236905322  0.5278644131778354  0.6238511304608224
  0.7500025952956654  0.0278641841930938  0.6238475678916968
  0.7500193466954265  0.5278644176982678  0.6238511295496978
  0.0000001527463635  0.3750355947080539  0.6576099385083929
 -0.0000000119290390  0.8749995708324954  0.6576039678442699
  0.4999998784626432  0.3750014656779171  0.6576032761275773
  0.5000000198129730  0.8749999794557409  0.6576052359448334
  0.2500000648545156  0.2221347052943065  0.6238477126961371
  0.2499549137063423  0.7221203970720282  0.6238554405744241
  0.7499999359975764  0.2221347955017552  0.6238477110655297
  0.7500449202741198  0.7221203712283598  0.6238554372473432
  0.0000000015846711  0.1250004395799894  0.6722317481205149
  0.5000000020809597  0.1250011585946930  0.6722318865403918
  0.4999999994001078  0.6249967442108788  0.6722305027084369
  0.0000000802183834  0.6216385647408184  0.6747440362688590
 
  0.00000000E+00  0.00000000E+00  0.00000000E+00
  0.00000000E+00  0.00000000E+00  0.00000000E+00
  0.00000000E+00  0.00000000E+00  0.00000000E+00
  0.00000000E+00  0.00000000E+00  0.00000000E+00
  0.00000000E+00  0.00000000E+00  0.00000000E+00
  0.00000000E+00  0.00000000E+00  0.00000000E+00
  0.00000000E+00  0.00000000E+00  0.00000000E+00
  0.00000000E+00  0.00000000E+00  0.00000000E+00
  0.00000000E+00  0.00000000E+00  0.00000000E+00
  0.00000000E+00  0.00000000E+00  0.00000000E+00
  0.00000000E+00  0.00000000E+00  0.00000000E+00
  0.00000000E+00  0.00000000E+00  0.00000000E+00
  0.00000000E+00  0.00000000E+00  0.00000000E+00
  0.00000000E+00  0.00000000E+00  0.00000000E+00
  0.00000000E+00  0.00000000E+00  0.00000000E+00
  0.00000000E+00  0.00000000E+00  0.00000000E+00
  0.00000000E+00  0.00000000E+00  0.00000000E+00
  0.00000000E+00  0.00000000E+00  0.00000000E+00
  0.00000000E+00  0.00000000E+00  0.00000000E+00
  0.00000000E+00  0.00000000E+00  0.00000000E+00
  0.00000000E+00  0.00000000E+00  0.00000000E+00
  0.00000000E+00  0.00000000E+00  0.00000000E+00
  0.00000000E+00  0.00000000E+00  0.00000000E+00
  0.00000000E+00  0.00000000E+00  0.00000000E+00
  0.00000000E+00  0.00000000E+00  0.00000000E+00
  0.00000000E+00  0.00000000E+00  0.00000000E+00
  0.00000000E+00  0.00000000E+00  0.00000000E+00
  0.00000000E+00  0.00000000E+00  0.00000000E+00
  0.00000000E+00  0.00000000E+00  0.00000000E+00
  0.00000000E+00  0.00000000E+00  0.00000000E+00
  0.00000000E+00  0.00000000E+00  0.00000000E+00
  0.00000000E+00  0.00000000E+00  0.00000000E+00
  0.00000000E+00  0.00000000E+00  0.00000000E+00
  0.00000000E+00  0.00000000E+00  0.00000000E+00
  0.00000000E+00  0.00000000E+00  0.00000000E+00
  0.00000000E+00  0.00000000E+00  0.00000000E+00
  0.00000000E+00  0.00000000E+00  0.00000000E+00
  0.00000000E+00  0.00000000E+00  0.00000000E+00
  0.00000000E+00  0.00000000E+00  0.00000000E+00
  0.00000000E+00  0.00000000E+00  0.00000000E+00
  0.00000000E+00  0.00000000E+00  0.00000000E+00
  0.00000000E+00  0.00000000E+00  0.00000000E+00
  0.00000000E+00  0.00000000E+00  0.00000000E+00
  0.00000000E+00  0.00000000E+00  0.00000000E+00
  0.00000000E+00  0.00000000E+00  0.00000000E+00
  0.00000000E+00  0.00000000E+00  0.00000000E+00
  0.00000000E+00  0.00000000E+00  0.00000000E+00
  0.00000000E+00  0.00000000E+00  0.00000000E+00
  0.00000000E+00  0.00000000E+00  0.00000000E+00
  0.00000000E+00  0.00000000E+00  0.00000000E+00
  0.00000000E+00  0.00000000E+00  0.00000000E+00
  0.00000000E+00  0.00000000E+00  0.00000000E+00
  0.00000000E+00  0.00000000E+00  0.00000000E+00
  0.00000000E+00  0.00000000E+00  0.00000000E+00
  0.00000000E+00  0.00000000E+00  0.00000000E+00
  0.00000000E+00  0.00000000E+00  0.00000000E+00
  0.00000000E+00  0.00000000E+00  0.00000000E+00
  0.00000000E+00  0.00000000E+00  0.00000000E+00
  0.00000000E+00  0.00000000E+00  0.00000000E+00
  0.00000000E+00  0.00000000E+00  0.00000000E+00
  0.00000000E+00  0.00000000E+00  0.00000000E+00
  0.00000000E+00  0.00000000E+00  0.00000000E+00
  0.00000000E+00  0.00000000E+00  0.00000000E+00
  0.00000000E+00  0.00000000E+00  0.00000000E+00
  0.00000000E+00  0.00000000E+00  0.00000000E+00
  0.00000000E+00  0.00000000E+00  0.00000000E+00
  0.00000000E+00  0.00000000E+00  0.00000000E+00
  0.00000000E+00  0.00000000E+00  0.00000000E+00
  0.00000000E+00  0.00000000E+00  0.00000000E+00
  0.00000000E+00  0.00000000E+00  0.00000000E+00
  0.00000000E+00  0.00000000E+00  0.00000000E+00
  0.00000000E+00  0.00000000E+00  0.00000000E+00
  0.00000000E+00  0.00000000E+00  0.00000000E+00
  0.00000000E+00  0.00000000E+00  0.00000000E+00
  0.00000000E+00  0.00000000E+00  0.00000000E+00
  0.00000000E+00  0.00000000E+00  0.00000000E+00
  0.00000000E+00  0.00000000E+00  0.00000000E+00
  0.00000000E+00  0.00000000E+00  0.00000000E+00
  0.00000000E+00  0.00000000E+00  0.00000000E+00
  0.00000000E+00  0.00000000E+00  0.00000000E+00
  0.00000000E+00  0.00000000E+00  0.00000000E+00
  0.00000000E+00  0.00000000E+00  0.00000000E+00
  0.00000000E+00  0.00000000E+00  0.00000000E+00
  0.00000000E+00  0.00000000E+00  0.00000000E+00
  0.00000000E+00  0.00000000E+00  0.00000000E+00
  0.00000000E+00  0.00000000E+00  0.00000000E+00
  0.00000000E+00  0.00000000E+00  0.00000000E+00
  0.00000000E+00  0.00000000E+00  0.00000000E+00
  0.00000000E+00  0.00000000E+00  0.00000000E+00
  0.00000000E+00  0.00000000E+00  0.00000000E+00
  0.00000000E+00  0.00000000E+00  0.00000000E+00
  0.00000000E+00  0.00000000E+00  0.00000000E+00
  0.00000000E+00  0.00000000E+00  0.00000000E+00
  0.00000000E+00  0.00000000E+00  0.00000000E+00
  0.00000000E+00  0.00000000E+00  0.00000000E+00
  0.00000000E+00  0.00000000E+00  0.00000000E+00
  0.00000000E+00  0.00000000E+00  0.00000000E+00
  0.00000000E+00  0.00000000E+00  0.00000000E+00
  0.00000000E+00  0.00000000E+00  0.00000000E+00
  0.00000000E+00  0.00000000E+00  0.00000000E+00
  0.00000000E+00  0.00000000E+00  0.00000000E+00
