H4 Ir32 O68                             
   1.00000000000000     
     6.3790139999999997    0.0000000000000000    0.0000000000000000
     0.0000000000000000   12.8550290000000000    0.0000000000000000
     0.0000000000000000    0.0000000000000000   38.5650860000000009
   H    Ir   O 
     4    32    68
Direct
  0.8483476568202486  0.1250000217186728  0.6810448909304169
  0.8483492117762224  0.6250000374732485  0.6810448327726804
  0.3483476382336750  0.1250000210745887  0.6810448838590232
  0.3483491573194243  0.6250000380685936  0.6810448323896531
  0.2507337137020703  0.1249999715287746  0.3734469534041643
  0.2507337274590828  0.6250002246320170  0.3734468116134363
  0.7507337141916853  0.1249999713547273  0.3734469622541832
  0.7507337266329989  0.6250002246187982  0.3734468116999051
  0.0000624160436261  0.3750001808917315  0.3755093809945402
  0.0000623683060694  0.8750001931423128  0.3755094498427174
  0.5000624095913894  0.3750001801314852  0.3755093785630536
  0.5000623591169435  0.8750001948141940  0.3755094500016208
  0.2500895197984297  0.3750004302578690  0.4578028309480625
  0.2500895674331338  0.8750002743762191  0.4578027601569221
  0.7500895197809528  0.3750004286648251  0.4578028341744098
  0.7500895640119747  0.8750002767068050  0.4578027621219062
  0.0002170875131464  0.1250015557777036  0.4578559382366392
  0.0002162675898526  0.6250002033438850  0.4578558873523030
  0.5002170700461736  0.1250015566295606  0.4578559381072184
  0.5002162600576218  0.6250002024499182  0.4578558878616262
  0.2500080967935129  0.1249998593088201  0.5411905807368039
  0.2500080018402018  0.6250006668293618  0.5411905270454564
  0.7500081425014394  0.1249998717253098  0.5411905870538903
  0.7500080208999078  0.6250006541720033  0.5411905264322562
  0.0014786097132130  0.3750002627900717  0.5414688265824381
  0.0014786372763335  0.8750002337952999  0.5414687760619756
  0.5014786014169206  0.3750002607455888  0.5414688194668003
  0.5014785305063844  0.8750002603053876  0.5414687503822346
  0.2502955902990171  0.3749999430821569  0.6262160720027111
  0.2502947736395829  0.8750003555143914  0.6262156218805977
  0.7502955850448484  0.3749999448622751  0.6262160814603168
  0.7502947786367014  0.8750003536345085  0.6262156253255933
 -0.0018036996961078  0.1250003737381339  0.6244916933878345
 -0.0018032852283375  0.6250000456772704  0.6244916761353959
  0.4981962849815688  0.1250003740830857  0.6244917034739781
  0.4981966999333731  0.6250000453610638  0.6244916743528184
  0.0000898719692262  0.1249999865842271  0.3423359546185166
  0.0000897063843242  0.6249999719945709  0.3423359444147971
  0.5000895888549509  0.1249999869527212  0.3423359537165692
  0.5000897137208636  0.6249999717843431  0.3423359448580846
  0.2500963094920838  0.2771308891847253  0.3749315150561054
  0.2500963060632939  0.7771308605542069  0.3749315283733047
  0.7500963154125836  0.2771308786267266  0.3749315135360150
  0.7500962976027538  0.7771308593600719  0.3749315290931530
  0.0003940495386097  0.1250000056699221  0.4075432407071470
  0.0003939650557336  0.6249999986818460  0.4075432369544216
  0.5003940415304868  0.1250000057387544  0.4075432426394173
  0.5003939699526304  0.6249999986187124  0.4075432378244068
  0.2500962978441151  0.4728691565755535  0.3749315194772813
  0.2500963111951824  0.9728690961377886  0.3749315374079743
  0.7500963122393592  0.4728691580894407  0.3749315198363063
  0.7500962935580955  0.9728691064404318  0.3749315361462062
  0.0000555131312045  0.3749999965160571  0.4256822788175672
  0.0000555266507550  0.8749999936167375  0.4256822940030955
  0.5000554702902581  0.3749999964256165  0.4256822775234673
  0.5000554440229358  0.8749999935916106  0.4256822942116714
  0.2500595486718943  0.0271465808307376  0.4583018684124465
  0.2500595271885501  0.5271465742698482  0.4583018771273735
  0.7500595564009522  0.0271465744250860  0.4583018653148732
  0.7500595270310572  0.5271465715644128  0.4583018764546656
  0.0002311704202241  0.3750000044602225  0.4909136610016460
  0.0002311813796717  0.8749999959452955  0.4909136540436830
  0.5002311416453781  0.3750000043966377  0.4909136609930988
  0.5002311194264221  0.8749999961233981  0.4909136543681150
  0.2500595464614248  0.2228535233846451  0.4583018797818927
  0.2500595149117655  0.7228534535029708  0.4583018660489113
  0.7500595624607866  0.2228535258466901  0.4583018783090555
  0.7500595063986146  0.7228534601621763  0.4583018637998410
  0.0000503271646210  0.1249999860968801  0.5090069121606812
  0.0000502790287951  0.6250000137263391  0.5090069092632959
  0.5000504238724743  0.1249999859630549  0.5090069119778045
  0.5000503136790274  0.6250000137084317  0.5090069093897684
  0.2502529393197558  0.2771501124302934  0.5416365527004856
  0.2502529771587446  0.7771501494199344  0.5416365578457693
  0.7502529518801655  0.2771501198579267  0.5416365547079671
  0.7502529922090319  0.7771501510277908  0.5416365581257279
  0.0004447701749560  0.1249999961671480  0.5742018588513158
  0.0004448896294059  0.6250000044786260  0.5742018498056133
  0.5004480177989387  0.1249999960827068  0.5742018076941010
  0.5004449006026377  0.6250000044160089  0.5742018496254643
  0.2502529161376287  0.4728499126847134  0.5416365517869859
  0.2502529574225160  0.9728498776589850  0.5416365594960810
  0.7502529351740632  0.4728499102080308  0.5416365525800033
  0.7502529788511012  0.9728498706087919  0.5416365610316836
  0.0001333861912898  0.3749999967444694  0.5923632634327478
  0.0001331669754496  0.8749999999687526  0.5923632473413938
  0.5001332888280811  0.3749999979045158  0.5923632615260223
  0.5001331301753155  0.8749999990567061  0.5923632450334073
  0.2496936513210697  0.0271264816338038  0.6249618726739561
  0.2496936773715467  0.5271263867084126  0.6249618998200486
  0.7496936531687172  0.0271264812058548  0.6249618762476171
  0.7496937179489445  0.5271263930845013  0.6249619066954074
  0.0000637999866974  0.3750000052810746  0.6576002192450779
  0.0000636493769325  0.8749999934093737  0.6576001869392988
  0.5000637464485472  0.3750000063853756  0.6576002190882202
  0.5000636403770227  0.8749999921926965  0.6576001868208912
  0.2496936965629930  0.2228735575279867  0.6249619172615042
  0.2496936881930478  0.7228735711268000  0.6249618817560034
  0.7496937100800062  0.2228735514739908  0.6249619265869446
  0.7496937173517326  0.7228735712120624  0.6249618829068804
 -0.0078614529732345  0.1250000272743066  0.6736296787850499
 -0.0078612511848935  0.6249999933225133  0.6736297351329708
  0.4921385389157571  0.1250000273932707  0.6736296785518183
  0.4921387438916376  0.6249999932210034  0.6736297331752750
 
  0.00000000E+00  0.00000000E+00  0.00000000E+00
  0.00000000E+00  0.00000000E+00  0.00000000E+00
  0.00000000E+00  0.00000000E+00  0.00000000E+00
  0.00000000E+00  0.00000000E+00  0.00000000E+00
  0.00000000E+00  0.00000000E+00  0.00000000E+00
  0.00000000E+00  0.00000000E+00  0.00000000E+00
  0.00000000E+00  0.00000000E+00  0.00000000E+00
  0.00000000E+00  0.00000000E+00  0.00000000E+00
  0.00000000E+00  0.00000000E+00  0.00000000E+00
  0.00000000E+00  0.00000000E+00  0.00000000E+00
  0.00000000E+00  0.00000000E+00  0.00000000E+00
  0.00000000E+00  0.00000000E+00  0.00000000E+00
  0.00000000E+00  0.00000000E+00  0.00000000E+00
  0.00000000E+00  0.00000000E+00  0.00000000E+00
  0.00000000E+00  0.00000000E+00  0.00000000E+00
  0.00000000E+00  0.00000000E+00  0.00000000E+00
  0.00000000E+00  0.00000000E+00  0.00000000E+00
  0.00000000E+00  0.00000000E+00  0.00000000E+00
  0.00000000E+00  0.00000000E+00  0.00000000E+00
  0.00000000E+00  0.00000000E+00  0.00000000E+00
  0.00000000E+00  0.00000000E+00  0.00000000E+00
  0.00000000E+00  0.00000000E+00  0.00000000E+00
  0.00000000E+00  0.00000000E+00  0.00000000E+00
  0.00000000E+00  0.00000000E+00  0.00000000E+00
  0.00000000E+00  0.00000000E+00  0.00000000E+00
  0.00000000E+00  0.00000000E+00  0.00000000E+00
  0.00000000E+00  0.00000000E+00  0.00000000E+00
  0.00000000E+00  0.00000000E+00  0.00000000E+00
  0.00000000E+00  0.00000000E+00  0.00000000E+00
  0.00000000E+00  0.00000000E+00  0.00000000E+00
  0.00000000E+00  0.00000000E+00  0.00000000E+00
  0.00000000E+00  0.00000000E+00  0.00000000E+00
  0.00000000E+00  0.00000000E+00  0.00000000E+00
  0.00000000E+00  0.00000000E+00  0.00000000E+00
  0.00000000E+00  0.00000000E+00  0.00000000E+00
  0.00000000E+00  0.00000000E+00  0.00000000E+00
  0.00000000E+00  0.00000000E+00  0.00000000E+00
  0.00000000E+00  0.00000000E+00  0.00000000E+00
  0.00000000E+00  0.00000000E+00  0.00000000E+00
  0.00000000E+00  0.00000000E+00  0.00000000E+00
  0.00000000E+00  0.00000000E+00  0.00000000E+00
  0.00000000E+00  0.00000000E+00  0.00000000E+00
  0.00000000E+00  0.00000000E+00  0.00000000E+00
  0.00000000E+00  0.00000000E+00  0.00000000E+00
  0.00000000E+00  0.00000000E+00  0.00000000E+00
  0.00000000E+00  0.00000000E+00  0.00000000E+00
  0.00000000E+00  0.00000000E+00  0.00000000E+00
  0.00000000E+00  0.00000000E+00  0.00000000E+00
  0.00000000E+00  0.00000000E+00  0.00000000E+00
  0.00000000E+00  0.00000000E+00  0.00000000E+00
  0.00000000E+00  0.00000000E+00  0.00000000E+00
  0.00000000E+00  0.00000000E+00  0.00000000E+00
  0.00000000E+00  0.00000000E+00  0.00000000E+00
  0.00000000E+00  0.00000000E+00  0.00000000E+00
  0.00000000E+00  0.00000000E+00  0.00000000E+00
  0.00000000E+00  0.00000000E+00  0.00000000E+00
  0.00000000E+00  0.00000000E+00  0.00000000E+00
  0.00000000E+00  0.00000000E+00  0.00000000E+00
  0.00000000E+00  0.00000000E+00  0.00000000E+00
  0.00000000E+00  0.00000000E+00  0.00000000E+00
  0.00000000E+00  0.00000000E+00  0.00000000E+00
  0.00000000E+00  0.00000000E+00  0.00000000E+00
  0.00000000E+00  0.00000000E+00  0.00000000E+00
  0.00000000E+00  0.00000000E+00  0.00000000E+00
  0.00000000E+00  0.00000000E+00  0.00000000E+00
  0.00000000E+00  0.00000000E+00  0.00000000E+00
  0.00000000E+00  0.00000000E+00  0.00000000E+00
  0.00000000E+00  0.00000000E+00  0.00000000E+00
  0.00000000E+00  0.00000000E+00  0.00000000E+00
  0.00000000E+00  0.00000000E+00  0.00000000E+00
  0.00000000E+00  0.00000000E+00  0.00000000E+00
  0.00000000E+00  0.00000000E+00  0.00000000E+00
  0.00000000E+00  0.00000000E+00  0.00000000E+00
  0.00000000E+00  0.00000000E+00  0.00000000E+00
  0.00000000E+00  0.00000000E+00  0.00000000E+00
  0.00000000E+00  0.00000000E+00  0.00000000E+00
  0.00000000E+00  0.00000000E+00  0.00000000E+00
  0.00000000E+00  0.00000000E+00  0.00000000E+00
  0.00000000E+00  0.00000000E+00  0.00000000E+00
  0.00000000E+00  0.00000000E+00  0.00000000E+00
  0.00000000E+00  0.00000000E+00  0.00000000E+00
  0.00000000E+00  0.00000000E+00  0.00000000E+00
  0.00000000E+00  0.00000000E+00  0.00000000E+00
  0.00000000E+00  0.00000000E+00  0.00000000E+00
  0.00000000E+00  0.00000000E+00  0.00000000E+00
  0.00000000E+00  0.00000000E+00  0.00000000E+00
  0.00000000E+00  0.00000000E+00  0.00000000E+00
  0.00000000E+00  0.00000000E+00  0.00000000E+00
  0.00000000E+00  0.00000000E+00  0.00000000E+00
  0.00000000E+00  0.00000000E+00  0.00000000E+00
  0.00000000E+00  0.00000000E+00  0.00000000E+00
  0.00000000E+00  0.00000000E+00  0.00000000E+00
  0.00000000E+00  0.00000000E+00  0.00000000E+00
  0.00000000E+00  0.00000000E+00  0.00000000E+00
  0.00000000E+00  0.00000000E+00  0.00000000E+00
  0.00000000E+00  0.00000000E+00  0.00000000E+00
  0.00000000E+00  0.00000000E+00  0.00000000E+00
  0.00000000E+00  0.00000000E+00  0.00000000E+00
  0.00000000E+00  0.00000000E+00  0.00000000E+00
  0.00000000E+00  0.00000000E+00  0.00000000E+00
  0.00000000E+00  0.00000000E+00  0.00000000E+00
  0.00000000E+00  0.00000000E+00  0.00000000E+00
  0.00000000E+00  0.00000000E+00  0.00000000E+00
  0.00000000E+00  0.00000000E+00  0.00000000E+00
