H4 Ir32 O68                             
   1.00000000000000     
     6.3790139999999997    0.0000000000000000    0.0000000000000000
     0.0000000000000000   12.8550290000000000    0.0000000000000000
     0.0000000000000000    0.0000000000000000   38.5650860000000009
   H    Ir   O 
     4    32    68
Direct
 -0.0000000003066030  0.2004616921780543  0.6810927658952940
 -0.0000000015104364  0.7004619940609977  0.6810930832466621
  0.4999999995433502  0.2004620408992140  0.6810927979298419
  0.4999999995571654  0.7004619222228460  0.6810930904791852
  0.2500000039762995  0.1249255095581879  0.3734908561395362
  0.2500000016064423  0.6249251633604395  0.3734908523353300
  0.7499999962826693  0.1249255095177107  0.3734908561208372
  0.7499999988062823  0.6249251634302138  0.3734908523249806
  0.0000000000698985  0.3748097322956516  0.3755473356014412
  0.0000000001494947  0.8748100654318648  0.3755460783934591
  0.4999999998147013  0.3748097307057502  0.3755473383905503
  0.4999999998339636  0.8748100639844579  0.3755460847692001
  0.2499999992185992  0.3746601189781905  0.4578591116456617
  0.2499999994480767  0.8746598242949642  0.4578592409726954
  0.7500000004701537  0.3746601188418474  0.4578591116415496
  0.7500000002457430  0.8746598242684906  0.4578592410424460
 -0.0000000009043103  0.1247732908678875  0.4578937160686933
 -0.0000000004267393  0.6247726617116289  0.4578936727714074
  0.5000000007049914  0.1247732886810864  0.4578937170918401
  0.5000000001811440  0.6247726510161982  0.4578936731828944
  0.2499999907807565  0.1247984780193240  0.5411974618333261
  0.2500000065202960  0.6247979246260504  0.5411974120819729
  0.7500000094580221  0.1247984780819081  0.5411974618493522
  0.7499999936563461  0.6247979246364361  0.5411974120124021
  0.0000000005995114  0.3744654134806831  0.5414769659467575
  0.0000000004246207  0.8744651969374223  0.5414770879523261
  0.5000000005648074  0.3744654050116561  0.5414769666502067
  0.5000000004243104  0.8744652009000610  0.5414770884098165
  0.2500000188560891  0.3754736677688337  0.6257143153067820
  0.2499999865119266  0.8754742452388055  0.6257148526948606
  0.7499999808968609  0.3754736682437262  0.6257143147966250
  0.7500000133105958  0.8754742457316311  0.6257148526946456
  0.0000000004945990  0.1246316698687867  0.6246803612524341
  0.0000000001785247  0.6246294241061043  0.6246791267288170
  0.5000000005546477  0.1246318573934336  0.6246803601123331
  0.5000000000430095  0.6246305520293539  0.6246790781737918
  0.0000000010919739  0.1249906122376492  0.3423400817349768
  0.0000000019375382  0.6249906278191381  0.3423400855510390
  0.4999999989302947  0.1249906122552430  0.3423400817970287
  0.4999999980913500  0.6249906278318376  0.3423400855400508
  0.2500000001532874  0.2771180144353504  0.3749398067257164
  0.2500000001881394  0.7771180231390524  0.3749397953442674
  0.7499999998461986  0.2771180132038382  0.3749398068356816
  0.7499999998429007  0.7771180218269930  0.3749397954663022
  0.0000000001477170  0.1249908724500220  0.4075619752540385
  0.0000000003005890  0.6249908574010943  0.4075619433010803
  0.4999999998875139  0.1249908725015019  0.4075619750487683
  0.4999999997736314  0.6249908573067913  0.4075619430141698
  0.2500000002703082  0.4728523036557152  0.3749407842269070
  0.2500000005406389  0.9728523983085866  0.3749408007307582
  0.7499999997264510  0.4728523016673785  0.3749407840528601
  0.7499999994727473  0.9728523969633596  0.3749408006097493
 -0.0000000002988794  0.3749922480376506  0.4256868144869399
  0.0000000003713017  0.8749921972374615  0.4256867469102835
  0.5000000002914015  0.3749922480874930  0.4256868153043322
  0.4999999995972073  0.8749921972960262  0.4256867470772643
  0.2500000012557958  0.0271225911744270  0.4583073320844532
  0.2500000001809553  0.5271225006484300  0.4583073381952576
  0.7499999987267270  0.0271225916365639  0.4583073320041129
  0.7499999997593990  0.5271225011312282  0.4583073381978988
  0.0000000005870854  0.3749889043953810  0.4909242961372940
  0.0000000000701491  0.8749888619488467  0.4909242911556322
  0.4999999994463245  0.3749889045689970  0.4909242959790747
  0.4999999999004877  0.8749888618457037  0.4909242911530484
  0.2500000007986991  0.2228297508671661  0.4583078115319551
  0.2499999999053822  0.7228296800275487  0.4583078063582119
  0.7499999990805485  0.2228297529836706  0.4583078118267373
  0.7499999999961012  0.7228296805630956  0.4583078063684582
  0.0000000000099702  0.1249900202092292  0.5090090164627701
  0.0000000008070099  0.6249899799500312  0.5090091104099461
  0.4999999999718110  0.1249900200990342  0.5090090156196820
  0.4999999991146929  0.6249899801059764  0.5090091102417038
  0.2499999997211309  0.2771117852404873  0.5416414030831728
  0.2500000002499297  0.7771115418418719  0.5416414068063571
  0.7500000004330711  0.2771117851589288  0.5416414031534827
  0.7499999998620011  0.7771115414573355  0.5416414068084355
 -0.0000000003573342  0.1249712439397992  0.5741946531650106
 -0.0000000004522485  0.6249712830734947  0.5741947071352975
  0.4999999999905876  0.1249712467864493  0.5741946552529211
  0.5000000001019400  0.6249712869632309  0.5741947038363084
  0.2499999994846767  0.4728270268831850  0.5416422029957644
  0.2499999979347626  0.9728269894910339  0.5416422046841665
  0.7500000007422342  0.4728270261709994  0.5416422029387545
  0.7500000022009892  0.9728269895067927  0.5416422047022684
  0.0000000006916967  0.3749926223902132  0.5923586360840561
 -0.0000000004853965  0.8749925472267830  0.5923586559406976
  0.4999999992853496  0.3749926213628708  0.5923586364697946
  0.5000000004335112  0.8749925478348231  0.5923586563837585
  0.2500000125995673  0.0271250164352858  0.6249683774331414
  0.2500000343047115  0.5271251761448128  0.6249683220684039
  0.7499999875065089  0.0271250162950087  0.6249683774291298
  0.7499999657198629  0.5271251762056243  0.6249683221624591
 -0.0000000000219987  0.3749616868311544  0.6575952849567813
  0.0000000002882284  0.8749616525991621  0.6575952863042126
  0.5000000000614337  0.3749616854815783  0.6575952851227849
  0.4999999997037073  0.8749616524818725  0.6575952863715626
  0.2499999996941511  0.2228688064718291  0.6249547787425619
  0.2499999714394568  0.7228687934860036  0.6249547613967152
  0.7500000003911735  0.2228688065935247  0.6249547786732281
  0.7500000285756042  0.7228687937342906  0.6249547614275311
 -0.0000000000058804  0.1290591034270376  0.6736588156888972
  0.0000000000869836  0.6290593715298700  0.6736583725807465
  0.5000000000429677  0.1290592151360838  0.6736588159210041
  0.4999999999673602  0.6290593576211435  0.6736583670021935
 
  0.00000000E+00  0.00000000E+00  0.00000000E+00
  0.00000000E+00  0.00000000E+00  0.00000000E+00
  0.00000000E+00  0.00000000E+00  0.00000000E+00
  0.00000000E+00  0.00000000E+00  0.00000000E+00
  0.00000000E+00  0.00000000E+00  0.00000000E+00
  0.00000000E+00  0.00000000E+00  0.00000000E+00
  0.00000000E+00  0.00000000E+00  0.00000000E+00
  0.00000000E+00  0.00000000E+00  0.00000000E+00
  0.00000000E+00  0.00000000E+00  0.00000000E+00
  0.00000000E+00  0.00000000E+00  0.00000000E+00
  0.00000000E+00  0.00000000E+00  0.00000000E+00
  0.00000000E+00  0.00000000E+00  0.00000000E+00
  0.00000000E+00  0.00000000E+00  0.00000000E+00
  0.00000000E+00  0.00000000E+00  0.00000000E+00
  0.00000000E+00  0.00000000E+00  0.00000000E+00
  0.00000000E+00  0.00000000E+00  0.00000000E+00
  0.00000000E+00  0.00000000E+00  0.00000000E+00
  0.00000000E+00  0.00000000E+00  0.00000000E+00
  0.00000000E+00  0.00000000E+00  0.00000000E+00
  0.00000000E+00  0.00000000E+00  0.00000000E+00
  0.00000000E+00  0.00000000E+00  0.00000000E+00
  0.00000000E+00  0.00000000E+00  0.00000000E+00
  0.00000000E+00  0.00000000E+00  0.00000000E+00
  0.00000000E+00  0.00000000E+00  0.00000000E+00
  0.00000000E+00  0.00000000E+00  0.00000000E+00
  0.00000000E+00  0.00000000E+00  0.00000000E+00
  0.00000000E+00  0.00000000E+00  0.00000000E+00
  0.00000000E+00  0.00000000E+00  0.00000000E+00
  0.00000000E+00  0.00000000E+00  0.00000000E+00
  0.00000000E+00  0.00000000E+00  0.00000000E+00
  0.00000000E+00  0.00000000E+00  0.00000000E+00
  0.00000000E+00  0.00000000E+00  0.00000000E+00
  0.00000000E+00  0.00000000E+00  0.00000000E+00
  0.00000000E+00  0.00000000E+00  0.00000000E+00
  0.00000000E+00  0.00000000E+00  0.00000000E+00
  0.00000000E+00  0.00000000E+00  0.00000000E+00
  0.00000000E+00  0.00000000E+00  0.00000000E+00
  0.00000000E+00  0.00000000E+00  0.00000000E+00
  0.00000000E+00  0.00000000E+00  0.00000000E+00
  0.00000000E+00  0.00000000E+00  0.00000000E+00
  0.00000000E+00  0.00000000E+00  0.00000000E+00
  0.00000000E+00  0.00000000E+00  0.00000000E+00
  0.00000000E+00  0.00000000E+00  0.00000000E+00
  0.00000000E+00  0.00000000E+00  0.00000000E+00
  0.00000000E+00  0.00000000E+00  0.00000000E+00
  0.00000000E+00  0.00000000E+00  0.00000000E+00
  0.00000000E+00  0.00000000E+00  0.00000000E+00
  0.00000000E+00  0.00000000E+00  0.00000000E+00
  0.00000000E+00  0.00000000E+00  0.00000000E+00
  0.00000000E+00  0.00000000E+00  0.00000000E+00
  0.00000000E+00  0.00000000E+00  0.00000000E+00
  0.00000000E+00  0.00000000E+00  0.00000000E+00
  0.00000000E+00  0.00000000E+00  0.00000000E+00
  0.00000000E+00  0.00000000E+00  0.00000000E+00
  0.00000000E+00  0.00000000E+00  0.00000000E+00
  0.00000000E+00  0.00000000E+00  0.00000000E+00
  0.00000000E+00  0.00000000E+00  0.00000000E+00
  0.00000000E+00  0.00000000E+00  0.00000000E+00
  0.00000000E+00  0.00000000E+00  0.00000000E+00
  0.00000000E+00  0.00000000E+00  0.00000000E+00
  0.00000000E+00  0.00000000E+00  0.00000000E+00
  0.00000000E+00  0.00000000E+00  0.00000000E+00
  0.00000000E+00  0.00000000E+00  0.00000000E+00
  0.00000000E+00  0.00000000E+00  0.00000000E+00
  0.00000000E+00  0.00000000E+00  0.00000000E+00
  0.00000000E+00  0.00000000E+00  0.00000000E+00
  0.00000000E+00  0.00000000E+00  0.00000000E+00
  0.00000000E+00  0.00000000E+00  0.00000000E+00
  0.00000000E+00  0.00000000E+00  0.00000000E+00
  0.00000000E+00  0.00000000E+00  0.00000000E+00
  0.00000000E+00  0.00000000E+00  0.00000000E+00
  0.00000000E+00  0.00000000E+00  0.00000000E+00
  0.00000000E+00  0.00000000E+00  0.00000000E+00
  0.00000000E+00  0.00000000E+00  0.00000000E+00
  0.00000000E+00  0.00000000E+00  0.00000000E+00
  0.00000000E+00  0.00000000E+00  0.00000000E+00
  0.00000000E+00  0.00000000E+00  0.00000000E+00
  0.00000000E+00  0.00000000E+00  0.00000000E+00
  0.00000000E+00  0.00000000E+00  0.00000000E+00
  0.00000000E+00  0.00000000E+00  0.00000000E+00
  0.00000000E+00  0.00000000E+00  0.00000000E+00
  0.00000000E+00  0.00000000E+00  0.00000000E+00
  0.00000000E+00  0.00000000E+00  0.00000000E+00
  0.00000000E+00  0.00000000E+00  0.00000000E+00
  0.00000000E+00  0.00000000E+00  0.00000000E+00
  0.00000000E+00  0.00000000E+00  0.00000000E+00
  0.00000000E+00  0.00000000E+00  0.00000000E+00
  0.00000000E+00  0.00000000E+00  0.00000000E+00
  0.00000000E+00  0.00000000E+00  0.00000000E+00
  0.00000000E+00  0.00000000E+00  0.00000000E+00
  0.00000000E+00  0.00000000E+00  0.00000000E+00
  0.00000000E+00  0.00000000E+00  0.00000000E+00
  0.00000000E+00  0.00000000E+00  0.00000000E+00
  0.00000000E+00  0.00000000E+00  0.00000000E+00
  0.00000000E+00  0.00000000E+00  0.00000000E+00
  0.00000000E+00  0.00000000E+00  0.00000000E+00
  0.00000000E+00  0.00000000E+00  0.00000000E+00
  0.00000000E+00  0.00000000E+00  0.00000000E+00
  0.00000000E+00  0.00000000E+00  0.00000000E+00
  0.00000000E+00  0.00000000E+00  0.00000000E+00
  0.00000000E+00  0.00000000E+00  0.00000000E+00
  0.00000000E+00  0.00000000E+00  0.00000000E+00
  0.00000000E+00  0.00000000E+00  0.00000000E+00
  0.00000000E+00  0.00000000E+00  0.00000000E+00
