Ba10 Sr10 Co24 H1 O70                   
    1.000000000000000     
    11.1057150000000000    0.0000000000000000    0.0000000000000000
    -0.0047930000000000    5.5528550000000001    0.0000000000000000
     0.0000000000000000    0.0000000000000000   87.2902260000000041
   Ba   Sr   Co   H    O 
    10    10    24     1    70
Direct
  0.9993246990031379  0.9987804367895569  0.5550991695482251
  0.4998968641975258  0.9979740497230509  0.5550922010702442
  0.2529879761176062  0.5013370194542940  0.6008238623136009
  0.7528638251365732  0.5009003125560877  0.6008859296928541
 -0.0007802594956992  0.9993926486820813  0.4637244921002548
  0.5009868753512854  0.9996415425258621  0.4637365574578997
  0.2494503917001323  0.4954458240899374  0.5095057759970792
  0.7494826254423018  0.4953349191079829  0.5095357973925284
  0.2495808571992305  0.5018625342924179  0.4168447285686253
  0.7495549619035567  0.4993995043243940  0.4168293223557381
  0.2499974000418749  0.4918897014438529  0.5552930757585551
  0.7502713342837806  0.4917455078315350  0.5552866787591514
  0.5004044098844804  0.0073920917829495  0.6010055921224901
 -0.0001070813043440  0.0086252744505183  0.6010616275964307
  0.2525892080119559  0.4996656486148949  0.4633257244818554
  0.7507881777587869  0.4911156834897104  0.4634019186027646
  0.4996575609136587  0.9919452599058570  0.5089458089216180
  0.9997200648132610  0.9919966697051618  0.5089593823228289
  0.4997592798686981  0.0008213499668583  0.4175622281062544
  0.0000865869128607  0.0008795651451878  0.4175664954416252
  0.2477801084075676  0.0115721725993019  0.6221450685073427
  0.7478930802465177  0.0100873271658235  0.6217439588435248
  0.0017552128322637  0.5116896896100610  0.6218455900881664
  0.5019644242020244  0.5121400766603210  0.6218592915277172
  0.9995916015482016  0.5088606280455406  0.5782098662995325
  0.4996742409560962  0.5087677270329551  0.5780198953752171
  0.2497555703588981  0.0012048338645908  0.5773888507553618
  0.7498591985194231  0.0009896341817267  0.5773704947130940
  0.2512272274864945  0.9908010319572172  0.5322233035150762
  0.7510898738677249  0.9911100329128740  0.5321708895317430
  0.9987752383209050  0.4910939128559826  0.5319011317188971
  0.4987595529391940  0.4911190329381835  0.5319012812089627
  0.9991852836445364  0.5062524030916239  0.4863732949344420
  0.4991641653958299  0.5062202770324049  0.4863852682035434
  0.2499490153516468  0.0001305621694674  0.4866964206354394
  0.7499565962826555  0.9995464607140766  0.4866884299574027
  0.2499320888165864  0.9996739239154037  0.4413410483860372
  0.7510981539031666  0.9915241009163117  0.4408227804586682
 -0.0000543234542217  0.4993533709211821  0.4413411243629557
  0.4999423333977618  0.4993217337951258  0.4413350110991219
  0.9980689599161756  0.5108032112533770  0.3953684208463618
  0.4980809811851494  0.5107773285512087  0.3953625859612850
  0.2517715704850987  0.0110018516758312  0.3953211498149576
  0.7517329366124172  0.0107746664935949  0.3952910535499319
  0.2251972788908558  0.1507959730871148  0.6625474571720773
 -0.0000055525806445  0.4999119348993331  0.6004348617101174
  0.5000024544439257  0.4998978524423564  0.6004354547814066
  0.9953014139168499  0.4998932043457395  0.5531762652586960
  0.5046981532093185  0.5000124392850980  0.5531773485847566
  0.1309435365905492  0.7875962311824044  0.6224162604592013
  0.6310018961793875  0.7876529586570314  0.6228999327774843
  0.3811304548574450  0.7124541102389742  0.6229043041001007
  0.8810636893804309  0.7125353962358922  0.6229057478127408
  0.3691038446867995  0.2125244725005314  0.6224131667431181
  0.8690986591256888  0.2082758251109244  0.6227562853426698
  0.1185589090579413  0.2919389201992663  0.6227463352212521
  0.6189231940441784  0.2875146801449309  0.6229039085168278
  0.2499960267843266 -0.0000417175994492  0.5542758116115674
  0.7499877538837645 -0.0000516123226618  0.5542875241543725
  0.2499956992912177 -0.0000146340619220  0.5995797731550986
  0.7499972440110148  0.9999624524353301  0.5995642401887084
  0.3771915107165374  0.2802100347717571  0.5779833433643823
  0.8771998959859096  0.2802066743050128  0.5780011826168441
  0.1262659065051461  0.2247908366931679  0.5781137688605367
  0.6262709552692025  0.2247639191464309  0.5781157352197323
  0.1228444321087319  0.7198851697510085  0.5779808265459969
  0.6228466305630744  0.7199155424766158  0.5779894071732670
  0.3737500110042324  0.7751454333052078  0.5781142415104553
  0.8737442011363943  0.7751646827924502  0.5781166950522327
  0.9953162527724112  0.4999600289212884  0.5078646686683220
  0.4953183797536464  0.4999598126216522  0.5078651682575297
 -0.0000054141174452  0.4999587958392914  0.4644880706847886
  0.4999969067758505  0.4999607998052564  0.4644874119116312
  0.1380131823903361  0.7747673509254956  0.5327975819009089
  0.6380346279653283  0.7748056214925987  0.5327947684140708
  0.3880521486740620  0.7248871912954451  0.5327909414234548
  0.8880497174286301  0.7249338528169826  0.5327867654575271
  0.3619318314613578  0.2249874737159709  0.5327943254305471
  0.8619209506507437  0.2249565007235591  0.5327920812243747
  0.1119789174048647  0.2748768339106711  0.5327908833984500
  0.6119801510963434  0.2748358184636360  0.5327864750458886
  0.2500049822595383  0.9875257202828753  0.4635268600693441
  0.7499983565556700  0.9875298938407051  0.4635244782652990
  0.2499893469155933  0.9875806319787745  0.5088454726098655
  0.7499907295893360  0.9875747251273318  0.5088459522200243
  0.3927987367401423  0.2624627901006524  0.4869552212478415
  0.8927964164257438  0.2624633732879207  0.4869553836550176
  0.1428603140727922  0.2373933719520401  0.4864752088528367
  0.6428600822694908  0.2373924351672295  0.4864752328873817
  0.1072158303698241  0.7375585909093678  0.4869574993921077
  0.6072154637388006  0.7375552106889861  0.4869578102062685
  0.3571823280338495  0.7625056388508999  0.4864747876547966
  0.8571826351775361  0.7624999466620762  0.4864752244290699
 -0.0000008572260456  0.4999656435485493  0.4191640729982197
  0.4999977466186374  0.4999644389110955  0.4191646664003439
  0.1380105071988258  0.7749512418374722  0.4406254405774270
  0.6379727516208077  0.7748232367650798  0.4406237636060549
  0.3857767388136613  0.7249872994861546  0.4406351313993826
  0.8857632483102167  0.7249852738342045  0.4406341521616664
  0.3619643367165429  0.2249984092199813  0.4406300153968912
  0.8619300669496285  0.2248792813062286  0.4406281264910217
  0.1142395268063651  0.2749599244729432  0.4406361317749652
  0.6142152315521223  0.2749754723051516  0.4406358302908022
  0.2499877005653817  0.9999739115442395  0.4167663602625349
  0.7499866315663349  0.9999343770384019  0.4167698883720108
  0.3881777288334898  0.2751265921837300  0.3937629395638179
  0.8881775240391314  0.2751233649001052  0.3937627636364446
  0.1380844874616953  0.2248263463173606  0.3937524445211288
  0.6380833632546098  0.2248381168756129  0.3937521301144788
  0.1118247338524375  0.7249431021138690  0.3937608620352657
  0.6118262659548007  0.7249471131257826  0.3937610348378339
  0.3619140506111116  0.7752326638443596  0.3937541171005497
  0.8619146313243070  0.7752278230747438  0.3937540737839814
  0.2585998196617602  0.0117123331722567  0.6438644503807766
  0.2071468430846878  0.1976493104830442  0.6516948741480123
 
  0.00000000E+00  0.00000000E+00  0.00000000E+00
  0.00000000E+00  0.00000000E+00  0.00000000E+00
  0.00000000E+00  0.00000000E+00  0.00000000E+00
  0.00000000E+00  0.00000000E+00  0.00000000E+00
  0.00000000E+00  0.00000000E+00  0.00000000E+00
  0.00000000E+00  0.00000000E+00  0.00000000E+00
  0.00000000E+00  0.00000000E+00  0.00000000E+00
  0.00000000E+00  0.00000000E+00  0.00000000E+00
  0.00000000E+00  0.00000000E+00  0.00000000E+00
  0.00000000E+00  0.00000000E+00  0.00000000E+00
  0.00000000E+00  0.00000000E+00  0.00000000E+00
  0.00000000E+00  0.00000000E+00  0.00000000E+00
  0.00000000E+00  0.00000000E+00  0.00000000E+00
  0.00000000E+00  0.00000000E+00  0.00000000E+00
  0.00000000E+00  0.00000000E+00  0.00000000E+00
  0.00000000E+00  0.00000000E+00  0.00000000E+00
  0.00000000E+00  0.00000000E+00  0.00000000E+00
  0.00000000E+00  0.00000000E+00  0.00000000E+00
  0.00000000E+00  0.00000000E+00  0.00000000E+00
  0.00000000E+00  0.00000000E+00  0.00000000E+00
  0.00000000E+00  0.00000000E+00  0.00000000E+00
  0.00000000E+00  0.00000000E+00  0.00000000E+00
  0.00000000E+00  0.00000000E+00  0.00000000E+00
  0.00000000E+00  0.00000000E+00  0.00000000E+00
  0.00000000E+00  0.00000000E+00  0.00000000E+00
  0.00000000E+00  0.00000000E+00  0.00000000E+00
  0.00000000E+00  0.00000000E+00  0.00000000E+00
  0.00000000E+00  0.00000000E+00  0.00000000E+00
  0.00000000E+00  0.00000000E+00  0.00000000E+00
  0.00000000E+00  0.00000000E+00  0.00000000E+00
  0.00000000E+00  0.00000000E+00  0.00000000E+00
  0.00000000E+00  0.00000000E+00  0.00000000E+00
  0.00000000E+00  0.00000000E+00  0.00000000E+00
  0.00000000E+00  0.00000000E+00  0.00000000E+00
  0.00000000E+00  0.00000000E+00  0.00000000E+00
  0.00000000E+00  0.00000000E+00  0.00000000E+00
  0.00000000E+00  0.00000000E+00  0.00000000E+00
  0.00000000E+00  0.00000000E+00  0.00000000E+00
  0.00000000E+00  0.00000000E+00  0.00000000E+00
  0.00000000E+00  0.00000000E+00  0.00000000E+00
  0.00000000E+00  0.00000000E+00  0.00000000E+00
  0.00000000E+00  0.00000000E+00  0.00000000E+00
  0.00000000E+00  0.00000000E+00  0.00000000E+00
  0.00000000E+00  0.00000000E+00  0.00000000E+00
  0.00000000E+00  0.00000000E+00  0.00000000E+00
  0.00000000E+00  0.00000000E+00  0.00000000E+00
  0.00000000E+00  0.00000000E+00  0.00000000E+00
  0.00000000E+00  0.00000000E+00  0.00000000E+00
  0.00000000E+00  0.00000000E+00  0.00000000E+00
  0.00000000E+00  0.00000000E+00  0.00000000E+00
  0.00000000E+00  0.00000000E+00  0.00000000E+00
  0.00000000E+00  0.00000000E+00  0.00000000E+00
  0.00000000E+00  0.00000000E+00  0.00000000E+00
  0.00000000E+00  0.00000000E+00  0.00000000E+00
  0.00000000E+00  0.00000000E+00  0.00000000E+00
  0.00000000E+00  0.00000000E+00  0.00000000E+00
  0.00000000E+00  0.00000000E+00  0.00000000E+00
  0.00000000E+00  0.00000000E+00  0.00000000E+00
  0.00000000E+00  0.00000000E+00  0.00000000E+00
  0.00000000E+00  0.00000000E+00  0.00000000E+00
  0.00000000E+00  0.00000000E+00  0.00000000E+00
  0.00000000E+00  0.00000000E+00  0.00000000E+00
  0.00000000E+00  0.00000000E+00  0.00000000E+00
  0.00000000E+00  0.00000000E+00  0.00000000E+00
  0.00000000E+00  0.00000000E+00  0.00000000E+00
  0.00000000E+00  0.00000000E+00  0.00000000E+00
  0.00000000E+00  0.00000000E+00  0.00000000E+00
  0.00000000E+00  0.00000000E+00  0.00000000E+00
  0.00000000E+00  0.00000000E+00  0.00000000E+00
  0.00000000E+00  0.00000000E+00  0.00000000E+00
  0.00000000E+00  0.00000000E+00  0.00000000E+00
  0.00000000E+00  0.00000000E+00  0.00000000E+00
  0.00000000E+00  0.00000000E+00  0.00000000E+00
  0.00000000E+00  0.00000000E+00  0.00000000E+00
  0.00000000E+00  0.00000000E+00  0.00000000E+00
  0.00000000E+00  0.00000000E+00  0.00000000E+00
  0.00000000E+00  0.00000000E+00  0.00000000E+00
  0.00000000E+00  0.00000000E+00  0.00000000E+00
  0.00000000E+00  0.00000000E+00  0.00000000E+00
  0.00000000E+00  0.00000000E+00  0.00000000E+00
  0.00000000E+00  0.00000000E+00  0.00000000E+00
  0.00000000E+00  0.00000000E+00  0.00000000E+00
  0.00000000E+00  0.00000000E+00  0.00000000E+00
  0.00000000E+00  0.00000000E+00  0.00000000E+00
  0.00000000E+00  0.00000000E+00  0.00000000E+00
  0.00000000E+00  0.00000000E+00  0.00000000E+00
  0.00000000E+00  0.00000000E+00  0.00000000E+00
  0.00000000E+00  0.00000000E+00  0.00000000E+00
  0.00000000E+00  0.00000000E+00  0.00000000E+00
  0.00000000E+00  0.00000000E+00  0.00000000E+00
  0.00000000E+00  0.00000000E+00  0.00000000E+00
  0.00000000E+00  0.00000000E+00  0.00000000E+00
  0.00000000E+00  0.00000000E+00  0.00000000E+00
  0.00000000E+00  0.00000000E+00  0.00000000E+00
  0.00000000E+00  0.00000000E+00  0.00000000E+00
  0.00000000E+00  0.00000000E+00  0.00000000E+00
  0.00000000E+00  0.00000000E+00  0.00000000E+00
  0.00000000E+00  0.00000000E+00  0.00000000E+00
  0.00000000E+00  0.00000000E+00  0.00000000E+00
  0.00000000E+00  0.00000000E+00  0.00000000E+00
  0.00000000E+00  0.00000000E+00  0.00000000E+00
  0.00000000E+00  0.00000000E+00  0.00000000E+00
  0.00000000E+00  0.00000000E+00  0.00000000E+00
  0.00000000E+00  0.00000000E+00  0.00000000E+00
  0.00000000E+00  0.00000000E+00  0.00000000E+00
  0.00000000E+00  0.00000000E+00  0.00000000E+00
  0.00000000E+00  0.00000000E+00  0.00000000E+00
  0.00000000E+00  0.00000000E+00  0.00000000E+00
  0.00000000E+00  0.00000000E+00  0.00000000E+00
  0.00000000E+00  0.00000000E+00  0.00000000E+00
  0.00000000E+00  0.00000000E+00  0.00000000E+00
  0.00000000E+00  0.00000000E+00  0.00000000E+00
  0.00000000E+00  0.00000000E+00  0.00000000E+00
  0.00000000E+00  0.00000000E+00  0.00000000E+00
  0.00000000E+00  0.00000000E+00  0.00000000E+00
