Ir32 O64                                
   1.00000000000000     
     9.0898780000000006    0.0000000000000000    0.0000000000000000
     0.0000000000000000   11.1045669999999994   -0.0793000000000000
     0.0000000000000000    0.0000000000000000   31.3300599999999996
   Ir   O 
    32    64
Direct
  0.2636823159618926  0.3283278373359460  0.3750456923849513
  0.2636822044022732  0.8283341849625092  0.3750462752241361
  0.7636835290353730  0.3283282273760942  0.3750456326018540
  0.7636797301875612  0.8283321049659720  0.3750464475723643
 -0.0102231472605245  0.0778306051969457  0.3748848589934713
 -0.0102226824089282  0.5778330332205128  0.3748840230036789
  0.4897775915196990  0.0778309553024770  0.3748846547420106
  0.4897725679867425  0.5778322970616162  0.3748839945077399
  0.2482818535937593  0.0019602818228226  0.4572718272866639
  0.2482791730548271  0.5019584929201332  0.4572721094262526
  0.7482793595728257  0.0019588331777349  0.4572721694674529
  0.7482792108526842  0.5019585740857934  0.4572719903304135
  0.0027517868604864  0.2516233417704652  0.4575921061513894
  0.0027512700993447  0.7516223153865482  0.4575917420491151
  0.5027505643681394  0.2516245431479145  0.4575918352808081
  0.5027503175786482  0.7516236780791087  0.4575916851035491
  0.2517287244225217  0.1647063587903478  0.5427278301405088
  0.2517277495397535  0.6647066006563198  0.5427281401966465
  0.7517276869373306  0.1647068040700842  0.5427282057927929
  0.7517283418134223  0.6647069919558913  0.5427279648188352
 -0.0027476899896600  0.4150411155143597  0.5424092127472534
 -0.0027451610068468  0.9150379438152030  0.5424094081416442
  0.4972508294380282  0.4150423429172247  0.5424092685140280
  0.4972537927173706  0.9150398110235349  0.5424086634054820
  0.2363130309702741  0.3383365474689805  0.6249543607749962
  0.2363177243900031  0.8383382522907462  0.6249543955038763
  0.7363141788179969  0.3383366917803903  0.6249541738438231
  0.7363182424693698  0.8383379573788120  0.6249545386215312
  0.0102181694603781  0.0888326315839659  0.6251156262362861
  0.0102138769214883  0.5888339666638798  0.6251156822892414
  0.5102179177005679  0.0888323134635428  0.6251155824083524
  0.5102160575864100  0.5888335017183211  0.6251157884816648
  0.3466790114503081  0.1880241188731450  0.3510682548673893
  0.3466577387762691  0.6880282475813104  0.3510673219166245
  0.8466794017031016  0.1880240712954332  0.3510683348377559
  0.8466582098075304  0.6880282901931744  0.3510674033827280
  0.0957567347150825  0.2317918397134946  0.3993252030058940
  0.0957531344948962  0.7318023143306066  0.3993254277313195
  0.5957556615618257  0.2317918299265904  0.3993254372282791
  0.5957549928057606  0.7317917192356098  0.3993255389060277
  0.1532503510132921  0.4815970875334310  0.3992603155846901
  0.1532502095434576  0.9815973687541873  0.3992603286830854
  0.6532501842425928  0.4815969467621872  0.3992603279217117
  0.6532503544444795  0.9815970702660266  0.3992603498726008
  0.4042727288268402  0.4347571700542620  0.3493718292580898
  0.4042733187585342  0.9347573527122170  0.3493716446789521
  0.9042727762078766  0.4347574335531748  0.3493717953090632
  0.9042729587649311  0.9347570078054737  0.3493718517529231
  0.3429004974382539  0.3531552938389670  0.4339872971895157
  0.3428799045078095  0.8531510691726341  0.4339882166207191
  0.8429006742562265  0.3531553786630373  0.4339874108250377
  0.8428801935563762  0.8531510850190918  0.4339880949831147
  0.0957685006897696  0.4004583733381644  0.4845049215785068
  0.0957682328054217  0.9004576164780231  0.4845050155655833
  0.5957666980368843  0.4004597919384743  0.4845038289884345
  0.5957684006710300  0.9004577445991448  0.4845049152170015
  0.1537703284974161  0.1489790870577514  0.4839793859094162
  0.1537715959144516  0.6489788810508020  0.4839791194268496
  0.6537712238568889  0.1489790898828406  0.4839791733626117
  0.6537706530801684  0.6489789589336482  0.4839793004226748
  0.4042392179175444  0.1019233451579939  0.4333409383689115
  0.4042390979421300  0.6019230262972223  0.4333409278771390
  0.9042391427273786  0.1019231771875113  0.4333408781757483
  0.9042407003647760  0.6019225014526892  0.4333401360138761
  0.3462348879470694  0.0176897153362982  0.5160203961837891
  0.3462363697405722  0.5176897332758140  0.5160202633923032
  0.8462361446090382  0.0176896223280400  0.5160199813089497
  0.8462344085298581  0.5176893327799296  0.5160201753106043
  0.0957602582948408  0.0647403903608776  0.5666611473215277
  0.0957619268446598  0.5647419719876539  0.5666599100068712
  0.5957618693361590  0.0647418274355545  0.5666598525914610
  0.5957617524655752  0.5647420075597052  0.5666599883833086
  0.1570942237181931  0.3135152579419143  0.5660127386425202
  0.1570945150014685  0.8135150186813078  0.5660126923289303
  0.6570940749044486  0.3135154208944350  0.5660127809514292
  0.6571478947881122  0.8135172667482747  0.5660131428039604
  0.4042338242100511  0.2662116318605992  0.5154945787329424
  0.4042336746840127  0.7662108625189370  0.5154947029239280
  0.9042345891693436  0.2662130571511149  0.5154937597799167
  0.9042337685667812  0.7662106975443368  0.5154945254354287
  0.3467509202191108  0.1850688717516261  0.6007394517114968
  0.3467510402957320  0.6850688845551102  0.6007396506187880
  0.8467508010440219  0.1850688819742324  0.6007394560592979
  0.8467514309701556  0.6850685709552511  0.6007396731996640
  0.0957268769042208  0.2319098353915725  0.6506278112994316
  0.0957269382274716  0.7319098101567802  0.6506278413732073
  0.5957265618149855  0.2319097858861666  0.6506279065780463
  0.5957266561012435  0.7319099602189850  0.6506277374622140
  0.1533201204800850  0.4786428654116813  0.6489318808055459
  0.1533209926598460  0.9786430893658468  0.6489320672830861
  0.6533203698310311  0.4786430370143617  0.6489319363763317
  0.6533214011897658  0.9786430337470232  0.6489321046158008
  0.4042469815078233  0.4348640164150541  0.6006757932417747
  0.4042469068206849  0.9348745093106013  0.6006744450340578
  0.9042435561002987  0.4348643101169315  0.6006744803630243
  0.9042423160508202  0.9348732977615208  0.6006753163752604
 
  0.00000000E+00  0.00000000E+00  0.00000000E+00
  0.00000000E+00  0.00000000E+00  0.00000000E+00
  0.00000000E+00  0.00000000E+00  0.00000000E+00
  0.00000000E+00  0.00000000E+00  0.00000000E+00
  0.00000000E+00  0.00000000E+00  0.00000000E+00
  0.00000000E+00  0.00000000E+00  0.00000000E+00
  0.00000000E+00  0.00000000E+00  0.00000000E+00
  0.00000000E+00  0.00000000E+00  0.00000000E+00
  0.00000000E+00  0.00000000E+00  0.00000000E+00
  0.00000000E+00  0.00000000E+00  0.00000000E+00
  0.00000000E+00  0.00000000E+00  0.00000000E+00
  0.00000000E+00  0.00000000E+00  0.00000000E+00
  0.00000000E+00  0.00000000E+00  0.00000000E+00
  0.00000000E+00  0.00000000E+00  0.00000000E+00
  0.00000000E+00  0.00000000E+00  0.00000000E+00
  0.00000000E+00  0.00000000E+00  0.00000000E+00
  0.00000000E+00  0.00000000E+00  0.00000000E+00
  0.00000000E+00  0.00000000E+00  0.00000000E+00
  0.00000000E+00  0.00000000E+00  0.00000000E+00
  0.00000000E+00  0.00000000E+00  0.00000000E+00
  0.00000000E+00  0.00000000E+00  0.00000000E+00
  0.00000000E+00  0.00000000E+00  0.00000000E+00
  0.00000000E+00  0.00000000E+00  0.00000000E+00
  0.00000000E+00  0.00000000E+00  0.00000000E+00
  0.00000000E+00  0.00000000E+00  0.00000000E+00
  0.00000000E+00  0.00000000E+00  0.00000000E+00
  0.00000000E+00  0.00000000E+00  0.00000000E+00
  0.00000000E+00  0.00000000E+00  0.00000000E+00
  0.00000000E+00  0.00000000E+00  0.00000000E+00
  0.00000000E+00  0.00000000E+00  0.00000000E+00
  0.00000000E+00  0.00000000E+00  0.00000000E+00
  0.00000000E+00  0.00000000E+00  0.00000000E+00
  0.00000000E+00  0.00000000E+00  0.00000000E+00
  0.00000000E+00  0.00000000E+00  0.00000000E+00
  0.00000000E+00  0.00000000E+00  0.00000000E+00
  0.00000000E+00  0.00000000E+00  0.00000000E+00
  0.00000000E+00  0.00000000E+00  0.00000000E+00
  0.00000000E+00  0.00000000E+00  0.00000000E+00
  0.00000000E+00  0.00000000E+00  0.00000000E+00
  0.00000000E+00  0.00000000E+00  0.00000000E+00
  0.00000000E+00  0.00000000E+00  0.00000000E+00
  0.00000000E+00  0.00000000E+00  0.00000000E+00
  0.00000000E+00  0.00000000E+00  0.00000000E+00
  0.00000000E+00  0.00000000E+00  0.00000000E+00
  0.00000000E+00  0.00000000E+00  0.00000000E+00
  0.00000000E+00  0.00000000E+00  0.00000000E+00
  0.00000000E+00  0.00000000E+00  0.00000000E+00
  0.00000000E+00  0.00000000E+00  0.00000000E+00
  0.00000000E+00  0.00000000E+00  0.00000000E+00
  0.00000000E+00  0.00000000E+00  0.00000000E+00
  0.00000000E+00  0.00000000E+00  0.00000000E+00
  0.00000000E+00  0.00000000E+00  0.00000000E+00
  0.00000000E+00  0.00000000E+00  0.00000000E+00
  0.00000000E+00  0.00000000E+00  0.00000000E+00
  0.00000000E+00  0.00000000E+00  0.00000000E+00
  0.00000000E+00  0.00000000E+00  0.00000000E+00
  0.00000000E+00  0.00000000E+00  0.00000000E+00
  0.00000000E+00  0.00000000E+00  0.00000000E+00
  0.00000000E+00  0.00000000E+00  0.00000000E+00
  0.00000000E+00  0.00000000E+00  0.00000000E+00
  0.00000000E+00  0.00000000E+00  0.00000000E+00
  0.00000000E+00  0.00000000E+00  0.00000000E+00
  0.00000000E+00  0.00000000E+00  0.00000000E+00
  0.00000000E+00  0.00000000E+00  0.00000000E+00
  0.00000000E+00  0.00000000E+00  0.00000000E+00
  0.00000000E+00  0.00000000E+00  0.00000000E+00
  0.00000000E+00  0.00000000E+00  0.00000000E+00
  0.00000000E+00  0.00000000E+00  0.00000000E+00
  0.00000000E+00  0.00000000E+00  0.00000000E+00
  0.00000000E+00  0.00000000E+00  0.00000000E+00
  0.00000000E+00  0.00000000E+00  0.00000000E+00
  0.00000000E+00  0.00000000E+00  0.00000000E+00
  0.00000000E+00  0.00000000E+00  0.00000000E+00
  0.00000000E+00  0.00000000E+00  0.00000000E+00
  0.00000000E+00  0.00000000E+00  0.00000000E+00
  0.00000000E+00  0.00000000E+00  0.00000000E+00
  0.00000000E+00  0.00000000E+00  0.00000000E+00
  0.00000000E+00  0.00000000E+00  0.00000000E+00
  0.00000000E+00  0.00000000E+00  0.00000000E+00
  0.00000000E+00  0.00000000E+00  0.00000000E+00
  0.00000000E+00  0.00000000E+00  0.00000000E+00
  0.00000000E+00  0.00000000E+00  0.00000000E+00
  0.00000000E+00  0.00000000E+00  0.00000000E+00
  0.00000000E+00  0.00000000E+00  0.00000000E+00
  0.00000000E+00  0.00000000E+00  0.00000000E+00
  0.00000000E+00  0.00000000E+00  0.00000000E+00
  0.00000000E+00  0.00000000E+00  0.00000000E+00
  0.00000000E+00  0.00000000E+00  0.00000000E+00
  0.00000000E+00  0.00000000E+00  0.00000000E+00
  0.00000000E+00  0.00000000E+00  0.00000000E+00
  0.00000000E+00  0.00000000E+00  0.00000000E+00
  0.00000000E+00  0.00000000E+00  0.00000000E+00
  0.00000000E+00  0.00000000E+00  0.00000000E+00
  0.00000000E+00  0.00000000E+00  0.00000000E+00
  0.00000000E+00  0.00000000E+00  0.00000000E+00
  0.00000000E+00  0.00000000E+00  0.00000000E+00
