Automatic kpoint scheme
0
Gamma
12 10 16
