Ir2 O4
1.0
0.000000 4.544939 0.000000
-4.544939 0.000000 3.189507
0.000000 0.000000 3.189507
Ir O
2 4
direct
0.500000 0.500000 0.000000 Ir4+
0.000000 0.000000 0.000000 Ir4+
0.691646 0.308354 0.691646 O2-
0.191646 0.191646 0.308354 O2-
0.308354 0.691646 0.308354 O2-
0.808354 0.808354 0.691646 O2-
