Ba10 Sr10 Co24 O68                      
    1.000000000000000     
    11.1057150000000000    0.0000000000000000    0.0000000000000000
    -0.0047930000000000    5.5528550000000001    0.0000000000000000
     0.0000000000000000    0.0000000000000000   87.2902260000000041
   Ba   Sr   Co   O 
    10    10    24    68
Direct
  0.9998662693497555  0.9978682906881297  0.5550771336853377
  0.5002801067584703  0.9977591323605386  0.5550682560106805
  0.2506684867899836  0.5002818624274658  0.6010640644306990
  0.7530142055758194  0.4997184952015623  0.6008771672492299
  0.0007086440872583  0.9981539711497885  0.4637088416614898
  0.5006946714203917  0.9981067306057286  0.4637081236737208
  0.2495954689563711  0.4952700822861363  0.5094388329878723
  0.7495861463849685  0.4952711140655779  0.5094445035805637
  0.2501407739216013  0.4996288455499814  0.4168283060346677
  0.7501315402577615  0.4995790685301628  0.4168286456335779
  0.2499939194995396  0.4909045874172703  0.5553037793654712
  0.7501695370097473  0.4912171395461348  0.5552923663646147
  0.5001294618686456  0.0041290828021797  0.6009729542980743
  0.0001998053212144  0.0054841053388617  0.6009726907451894
  0.2527062092000358  0.4990277643196734  0.4633195542234522
  0.7522184346896561  0.4971540128048912  0.4633695342660774
  0.4998234376696970  0.9916342213247406  0.5089124828907152
  0.9998362649116272  0.9916921156427907  0.5089163867590161
  0.5000670215986941  0.9992280171910610  0.4175563285947910
  0.0000757732190459  0.9992521132787913  0.4175562049562858
  0.2484978420627431  0.0107896086865842  0.6217976175310105
  0.7479229973502278  0.0098570782452956  0.6217738817601707
  0.0017366734758828  0.5112947795812596  0.6218970101821586
  0.5017169568065111  0.5112547713599832  0.6218813357838011
  0.9996594138637444  0.5084201625690405  0.5782103390976278
  0.4996578103364367  0.5083711098029914  0.5780708652142148
  0.2500126425578218  0.0003943401850502  0.5773687217986040
  0.7499409579846040  0.0003957395189704  0.5773670645565363
  0.2503399646603425  0.9975394781621783  0.5320561544396533
  0.7503213401120180  0.9977736947364825  0.5320541809045444
  0.9997267582477808  0.4989523814040470  0.5320259932548393
  0.4998014530431323  0.4988259685051672  0.5320270160955035
  0.9992360598430167  0.5057337277752778  0.4863826224535525
  0.4992033942142777  0.5055998312146373  0.4863858846268617
  0.2499686377270367 -0.0002257151360594  0.4866894931220234
  0.7499711099088165  0.9996795978109007  0.4866896754859407
  0.2503484770665449  0.9986813524023983  0.4413175051136705
  0.7504716652175419  0.9983163707674911  0.4413077778794258
  0.0001810155957259  0.4991195504621350  0.4413274665083443
  0.5002654035868142  0.4990478223674653  0.4413236764515349
  0.9982425839055307  0.5104134408987873  0.3953516242395675
  0.4982439022930893  0.5104095092430431  0.3953516322306037
  0.2517695553253022  0.0106435562237416  0.3953125550756989
  0.7517695365485968  0.0106384143843577  0.3953124027108657
  0.0000020151114111  0.4998599456565523  0.6004353521025051
  0.5000022711648582  0.4998523706958546  0.6004338394092011
  0.9953072762582648  0.4998509929914012  0.5531796784843850
  0.5046920042246739  0.4999771964225613  0.5531809259069230
  0.1310078335790059  0.7920297930348895  0.6227469686403536
  0.6310067235610246  0.7876239752387995  0.6228986811941654
  0.3810678341839098  0.7125323748682675  0.6229042053236873
  0.8810683322862246  0.7124962233050081  0.6229045684870401
  0.3690088815687789  0.2123588700972700  0.6228991939206088
  0.8691110861222426  0.2080414861683885  0.6227504965200020
  0.1189211206476548  0.2874954265941811  0.6229034546942246
  0.6189249956956524  0.2874664387817001  0.6229019345259686
  0.2500011830114837  0.9999162533788883  0.5542757302341798
  0.7500025346210845  0.9999121643526898  0.5542757839851099
  0.2500086907531806  0.9999257734123570  0.5995635366834762
  0.7499991061360459  0.9998974472836054  0.5995631919051932
  0.3771917967433699  0.2801696254586322  0.5779804919819710
  0.8772170816955434  0.2801078139564731  0.5779961608392359
  0.1262729803099698  0.2247384691290894  0.5781140419875415
  0.6262755847131428  0.2247198838948931  0.5781150462695570
  0.1228492943896331  0.7198273417384521  0.5779829858699936
  0.6228609855403557  0.7198540862371560  0.5779873528286237
  0.3737464682971329  0.7751187413856587  0.5781147663373483
  0.8737469237077549  0.7751281893012728  0.5781160764289052
  0.9953183057544313  0.4999347839485149  0.5078637152756734
  0.4953193317855157  0.4999345509137587  0.5078639499981049
 -0.0000014505912784  0.4999037724631667  0.4644870378913872
  0.4999991014202609  0.4999022946130407  0.4644869185438250
  0.1380400650230394  0.7747946897122644  0.5327955431169593
  0.6380515265077356  0.7748319743552781  0.5327933948550729
  0.3880441648575494  0.7249285631191316  0.5327906752437691
  0.8880401196614226  0.7249794685159702  0.5327867147798616
  0.3619399689757938  0.2250082399391903  0.5327935793192394
  0.8619302961254397  0.2249810449986720  0.5327915506203514
  0.1119568926774305  0.2749385523397626  0.5327893989552045
  0.6119599169959742  0.2748853523562904  0.5327852792976994
  0.2500106176911301  0.9875049792519798  0.4635261654051058
  0.7500098758118038  0.9875063322573946  0.4635261586592010
  0.2499907541712094  0.9875615939863857  0.5088460405977920
  0.7499906712333798  0.9875647646185197  0.5088460704791821
  0.3928004378057384  0.2624359714648730  0.4869548213765294
  0.8928009313874881  0.2624373177695548  0.4869548320076356
  0.1428635424603278  0.2373715925955723  0.4864747584843824
  0.6428632399832030  0.2373715888649430  0.4864747260600945
  0.1072213007180984  0.7375362133035139  0.4869573525570245
  0.6072207962633683  0.7375342194457382  0.4869573889559787
  0.3571878509523753  0.7624825386056503  0.4864744080031513
  0.8571877138055068  0.7624821471889612  0.4864744493922644
  0.0000010228449692  0.4999073664218042  0.4191641318921223
  0.5000028844723389  0.4999139483037977  0.4191642255954828
  0.1380171066565375  0.7749032157757697  0.4406246053094807
  0.6380170195064426  0.7749004949340222  0.4406245641287317
  0.3857841039237159  0.7249392990237341  0.4406343575717371
  0.8857827839919572  0.7249409497535311  0.4406343267030988
  0.3619712151073388  0.2249589349493250  0.4406293566874588
  0.8619709965218819  0.2249559165974288  0.4406293681400522
  0.1142469747978214  0.2749122616143406  0.4406363327746976
  0.6142475696525845  0.2749092020400822  0.4406364621246798
  0.2499910587887592  0.9999042964636418  0.4167659037963396
  0.7499910290078199  0.9999032991928379  0.4167659589010458
  0.3881808319314979  0.2750895736917569  0.3937621887104074
  0.8881808386959068  0.2750897455331431  0.3937621787549233
  0.1380780210664537  0.2247867063380271  0.3937520639096640
  0.6380780924325057  0.2247862398845631  0.3937520742640877
  0.1118290530148427  0.7249107473773416  0.3937604788674384
  0.6118309603909994  0.7249050449761493  0.3937598725088992
  0.3619236177803558  0.7751897737493098  0.3937532503406973
  0.8619235133921199  0.7751902296645793  0.3937532506550003
 
  0.00000000E+00  0.00000000E+00  0.00000000E+00
  0.00000000E+00  0.00000000E+00  0.00000000E+00
  0.00000000E+00  0.00000000E+00  0.00000000E+00
  0.00000000E+00  0.00000000E+00  0.00000000E+00
  0.00000000E+00  0.00000000E+00  0.00000000E+00
  0.00000000E+00  0.00000000E+00  0.00000000E+00
  0.00000000E+00  0.00000000E+00  0.00000000E+00
  0.00000000E+00  0.00000000E+00  0.00000000E+00
  0.00000000E+00  0.00000000E+00  0.00000000E+00
  0.00000000E+00  0.00000000E+00  0.00000000E+00
  0.00000000E+00  0.00000000E+00  0.00000000E+00
  0.00000000E+00  0.00000000E+00  0.00000000E+00
  0.00000000E+00  0.00000000E+00  0.00000000E+00
  0.00000000E+00  0.00000000E+00  0.00000000E+00
  0.00000000E+00  0.00000000E+00  0.00000000E+00
  0.00000000E+00  0.00000000E+00  0.00000000E+00
  0.00000000E+00  0.00000000E+00  0.00000000E+00
  0.00000000E+00  0.00000000E+00  0.00000000E+00
  0.00000000E+00  0.00000000E+00  0.00000000E+00
  0.00000000E+00  0.00000000E+00  0.00000000E+00
  0.00000000E+00  0.00000000E+00  0.00000000E+00
  0.00000000E+00  0.00000000E+00  0.00000000E+00
  0.00000000E+00  0.00000000E+00  0.00000000E+00
  0.00000000E+00  0.00000000E+00  0.00000000E+00
  0.00000000E+00  0.00000000E+00  0.00000000E+00
  0.00000000E+00  0.00000000E+00  0.00000000E+00
  0.00000000E+00  0.00000000E+00  0.00000000E+00
  0.00000000E+00  0.00000000E+00  0.00000000E+00
  0.00000000E+00  0.00000000E+00  0.00000000E+00
  0.00000000E+00  0.00000000E+00  0.00000000E+00
  0.00000000E+00  0.00000000E+00  0.00000000E+00
  0.00000000E+00  0.00000000E+00  0.00000000E+00
  0.00000000E+00  0.00000000E+00  0.00000000E+00
  0.00000000E+00  0.00000000E+00  0.00000000E+00
  0.00000000E+00  0.00000000E+00  0.00000000E+00
  0.00000000E+00  0.00000000E+00  0.00000000E+00
  0.00000000E+00  0.00000000E+00  0.00000000E+00
  0.00000000E+00  0.00000000E+00  0.00000000E+00
  0.00000000E+00  0.00000000E+00  0.00000000E+00
  0.00000000E+00  0.00000000E+00  0.00000000E+00
  0.00000000E+00  0.00000000E+00  0.00000000E+00
  0.00000000E+00  0.00000000E+00  0.00000000E+00
  0.00000000E+00  0.00000000E+00  0.00000000E+00
  0.00000000E+00  0.00000000E+00  0.00000000E+00
  0.00000000E+00  0.00000000E+00  0.00000000E+00
  0.00000000E+00  0.00000000E+00  0.00000000E+00
  0.00000000E+00  0.00000000E+00  0.00000000E+00
  0.00000000E+00  0.00000000E+00  0.00000000E+00
  0.00000000E+00  0.00000000E+00  0.00000000E+00
  0.00000000E+00  0.00000000E+00  0.00000000E+00
  0.00000000E+00  0.00000000E+00  0.00000000E+00
  0.00000000E+00  0.00000000E+00  0.00000000E+00
  0.00000000E+00  0.00000000E+00  0.00000000E+00
  0.00000000E+00  0.00000000E+00  0.00000000E+00
  0.00000000E+00  0.00000000E+00  0.00000000E+00
  0.00000000E+00  0.00000000E+00  0.00000000E+00
  0.00000000E+00  0.00000000E+00  0.00000000E+00
  0.00000000E+00  0.00000000E+00  0.00000000E+00
  0.00000000E+00  0.00000000E+00  0.00000000E+00
  0.00000000E+00  0.00000000E+00  0.00000000E+00
  0.00000000E+00  0.00000000E+00  0.00000000E+00
  0.00000000E+00  0.00000000E+00  0.00000000E+00
  0.00000000E+00  0.00000000E+00  0.00000000E+00
  0.00000000E+00  0.00000000E+00  0.00000000E+00
  0.00000000E+00  0.00000000E+00  0.00000000E+00
  0.00000000E+00  0.00000000E+00  0.00000000E+00
  0.00000000E+00  0.00000000E+00  0.00000000E+00
  0.00000000E+00  0.00000000E+00  0.00000000E+00
  0.00000000E+00  0.00000000E+00  0.00000000E+00
  0.00000000E+00  0.00000000E+00  0.00000000E+00
  0.00000000E+00  0.00000000E+00  0.00000000E+00
  0.00000000E+00  0.00000000E+00  0.00000000E+00
  0.00000000E+00  0.00000000E+00  0.00000000E+00
  0.00000000E+00  0.00000000E+00  0.00000000E+00
  0.00000000E+00  0.00000000E+00  0.00000000E+00
  0.00000000E+00  0.00000000E+00  0.00000000E+00
  0.00000000E+00  0.00000000E+00  0.00000000E+00
  0.00000000E+00  0.00000000E+00  0.00000000E+00
  0.00000000E+00  0.00000000E+00  0.00000000E+00
  0.00000000E+00  0.00000000E+00  0.00000000E+00
  0.00000000E+00  0.00000000E+00  0.00000000E+00
  0.00000000E+00  0.00000000E+00  0.00000000E+00
  0.00000000E+00  0.00000000E+00  0.00000000E+00
  0.00000000E+00  0.00000000E+00  0.00000000E+00
  0.00000000E+00  0.00000000E+00  0.00000000E+00
  0.00000000E+00  0.00000000E+00  0.00000000E+00
  0.00000000E+00  0.00000000E+00  0.00000000E+00
  0.00000000E+00  0.00000000E+00  0.00000000E+00
  0.00000000E+00  0.00000000E+00  0.00000000E+00
  0.00000000E+00  0.00000000E+00  0.00000000E+00
  0.00000000E+00  0.00000000E+00  0.00000000E+00
  0.00000000E+00  0.00000000E+00  0.00000000E+00
  0.00000000E+00  0.00000000E+00  0.00000000E+00
  0.00000000E+00  0.00000000E+00  0.00000000E+00
  0.00000000E+00  0.00000000E+00  0.00000000E+00
  0.00000000E+00  0.00000000E+00  0.00000000E+00
  0.00000000E+00  0.00000000E+00  0.00000000E+00
  0.00000000E+00  0.00000000E+00  0.00000000E+00
  0.00000000E+00  0.00000000E+00  0.00000000E+00
  0.00000000E+00  0.00000000E+00  0.00000000E+00
  0.00000000E+00  0.00000000E+00  0.00000000E+00
  0.00000000E+00  0.00000000E+00  0.00000000E+00
  0.00000000E+00  0.00000000E+00  0.00000000E+00
  0.00000000E+00  0.00000000E+00  0.00000000E+00
  0.00000000E+00  0.00000000E+00  0.00000000E+00
  0.00000000E+00  0.00000000E+00  0.00000000E+00
  0.00000000E+00  0.00000000E+00  0.00000000E+00
  0.00000000E+00  0.00000000E+00  0.00000000E+00
  0.00000000E+00  0.00000000E+00  0.00000000E+00
  0.00000000E+00  0.00000000E+00  0.00000000E+00
  0.00000000E+00  0.00000000E+00  0.00000000E+00
  0.00000000E+00  0.00000000E+00  0.00000000E+00
