H2 Pd64 O2                              
    1.000000000000000     
    11.0798020200000007    0.0000000000000000    0.0000000000000000
     0.0000000000000000   11.0798020200000007    0.0000000000000000
     0.0000000000000000    0.0000000000000000   39.1730157000000005
   H    Pd   O 
     2    64     2
Selective dynamics
Direct
  0.2472176263546321  0.9553974030169449  0.6316254571025965   T   T   T
  0.5021946983988975  0.7986912567618283  0.6319651281770517   T   T   T
  0.9997743870442876  0.2498309565450079  0.5251149005212099   T   T   T
  0.9998580706147785  0.5000889275787022  0.5252204635811334   T   T   T
  0.0016759624422290  0.7512196475166274  0.5257176251291897   T   T   T
  0.0012134514691908  0.9985324507485543  0.5256284444737385   T   T   T
  0.2499005870656765  0.2499221002945841  0.5251003167082700   T   T   T
  0.2499038817181588  0.5001283954282559  0.5252142039304257   T   T   T
  0.2511607857520209  0.7522110356024039  0.5262304049984303   T   T   T
  0.2509273514648285  0.9978969663586366  0.5260627414403998   T   T   T
  0.5001406274653823  0.2498328695194540  0.5251509988480565   T   T   T
  0.5000487355848435  0.5000431670259449  0.5251655062932197   T   T   T
  0.4993445513340658  0.7522513560621688  0.5261002938810528   T   T   T
  0.4993920963960982  0.9977643915672268  0.5261154449873431   T   T   T
  0.7501386662178912  0.2497147389140233  0.5251911114795755   T   T   T
  0.7500935650700677  0.5000024602173697  0.5251767853327377   T   T   T
  0.7483637058533358  0.7512354906764547  0.5256547084994956   T   T   T
  0.7480920676768984  0.9985137486530237  0.5256664606282252   T   T   T
  0.1244690838985094  0.1273554556653624  0.5746351506892203   T   T   T
  0.1247709003272103  0.3744114498672890  0.5747926687746037   T   T   T
  0.1243023994035005  0.6229116896217800  0.5746754676243374   T   T   T
  0.1200214185456338  0.8777650749080799  0.5784358109116867   T   T   T
  0.3744710881918141  0.1281245701737369  0.5745674188244535   T   T   T
  0.3748633533666562  0.3746813156933481  0.5748156401714540   T   T   T
  0.3755466266621721  0.6221748515784064  0.5746509947674090   T   T   T
  0.3772413805666365  0.8767727992157670  0.5841910170053468   T   T   T
  0.6256634476300251  0.1270696596124692  0.5746918138192735   T   T   T
  0.6249785707070997  0.3748955800108768  0.5747921308505344   T   T   T
  0.6251040907870133  0.6227301792918732  0.5747240795856863   T   T   T
  0.6297715238242410  0.8735705722538372  0.5791268520533409   T   T   T
  0.8753746173127597  0.1251387577636306  0.5747466654639941   T   T   T
  0.8748715321087952  0.3742725013565650  0.5747993260402505   T   T   T
  0.8741766476664073  0.6234855204004380  0.5747710587674758   T   T   T
  0.8742025250564829  0.8742220885125948  0.5747877744666293   T   T   T
  0.2500000000000000  0.0000000000000000  0.4249999999999972   F   F   F
  0.2500000000000000  0.2500000000000000  0.4249999999999972   F   F   F
  0.2500000000000000  0.5000000000000000  0.4249999999999972   F   F   F
  0.2500000000000000  0.7500000000000000  0.4249999999999972   F   F   F
  0.5000000000000000  0.0000000000000000  0.4249999999999972   F   F   F
  0.5000000000000000  0.2500000000000000  0.4249999999999972   F   F   F
  0.5000000000000000  0.5000000000000000  0.4249999999999972   F   F   F
  0.5000000000000000  0.7500000000000000  0.4249999999999972   F   F   F
  0.7500000000000000  0.0000000000000000  0.4249999999999972   F   F   F
  0.7500000000000000  0.2500000000000000  0.4249999999999972   F   F   F
  0.7500000000000000  0.5000000000000000  0.4249999999999972   F   F   F
  0.7500000000000000  0.7500000000000000  0.4249999999999972   F   F   F
  0.0000000000000000  0.0000000000000000  0.4249999999999972   F   F   F
  0.0000000000000000  0.2500000000000000  0.4249999999999972   F   F   F
  0.0000000000000000  0.5000000000000000  0.4249999999999972   F   F   F
  0.0000000000000000  0.7500000000000000  0.4249999999999972   F   F   F
  0.1250000000000000  0.1250000000000000  0.4750000000000014   F   F   F
  0.1250000000000000  0.3750000000000000  0.4750000000000014   F   F   F
  0.1250000000000000  0.6250000000000000  0.4750000000000014   F   F   F
  0.1250000000000000  0.8750000000000000  0.4750000000000014   F   F   F
  0.3750000000000000  0.1250000000000000  0.4750000000000014   F   F   F
  0.3750000000000000  0.3750000000000000  0.4750000000000014   F   F   F
  0.3750000000000000  0.6250000000000000  0.4750000000000014   F   F   F
  0.3750000000000000  0.8750000000000000  0.4750000000000014   F   F   F
  0.6250000000000000  0.1250000000000000  0.4750000000000014   F   F   F
  0.6250000000000000  0.3750000000000000  0.4750000000000014   F   F   F
  0.6250000000000000  0.6250000000000000  0.4750000000000014   F   F   F
  0.6250000000000000  0.8750000000000000  0.4750000000000014   F   F   F
  0.8750000000000000  0.1250000000000000  0.4750000000000014   F   F   F
  0.8750000000000000  0.3750000000000000  0.4750000000000014   F   F   F
  0.8750000000000000  0.6250000000000000  0.4750000000000014   F   F   F
  0.8750000000000000  0.8750000000000000  0.4750000000000014   F   F   F
  0.2347866118844688  0.8754018009148609  0.6214823096342964   T   T   T
  0.5177443866343118  0.8801382966682009  0.6231263556007091   T   T   T
 
  0.00000000E+00  0.00000000E+00  0.00000000E+00
  0.00000000E+00  0.00000000E+00  0.00000000E+00
  0.00000000E+00  0.00000000E+00  0.00000000E+00
  0.00000000E+00  0.00000000E+00  0.00000000E+00
  0.00000000E+00  0.00000000E+00  0.00000000E+00
  0.00000000E+00  0.00000000E+00  0.00000000E+00
  0.00000000E+00  0.00000000E+00  0.00000000E+00
  0.00000000E+00  0.00000000E+00  0.00000000E+00
  0.00000000E+00  0.00000000E+00  0.00000000E+00
  0.00000000E+00  0.00000000E+00  0.00000000E+00
  0.00000000E+00  0.00000000E+00  0.00000000E+00
  0.00000000E+00  0.00000000E+00  0.00000000E+00
  0.00000000E+00  0.00000000E+00  0.00000000E+00
  0.00000000E+00  0.00000000E+00  0.00000000E+00
  0.00000000E+00  0.00000000E+00  0.00000000E+00
  0.00000000E+00  0.00000000E+00  0.00000000E+00
  0.00000000E+00  0.00000000E+00  0.00000000E+00
  0.00000000E+00  0.00000000E+00  0.00000000E+00
  0.00000000E+00  0.00000000E+00  0.00000000E+00
  0.00000000E+00  0.00000000E+00  0.00000000E+00
  0.00000000E+00  0.00000000E+00  0.00000000E+00
  0.00000000E+00  0.00000000E+00  0.00000000E+00
  0.00000000E+00  0.00000000E+00  0.00000000E+00
  0.00000000E+00  0.00000000E+00  0.00000000E+00
  0.00000000E+00  0.00000000E+00  0.00000000E+00
  0.00000000E+00  0.00000000E+00  0.00000000E+00
  0.00000000E+00  0.00000000E+00  0.00000000E+00
  0.00000000E+00  0.00000000E+00  0.00000000E+00
  0.00000000E+00  0.00000000E+00  0.00000000E+00
  0.00000000E+00  0.00000000E+00  0.00000000E+00
  0.00000000E+00  0.00000000E+00  0.00000000E+00
  0.00000000E+00  0.00000000E+00  0.00000000E+00
  0.00000000E+00  0.00000000E+00  0.00000000E+00
  0.00000000E+00  0.00000000E+00  0.00000000E+00
  0.00000000E+00  0.00000000E+00  0.00000000E+00
  0.00000000E+00  0.00000000E+00  0.00000000E+00
  0.00000000E+00  0.00000000E+00  0.00000000E+00
  0.00000000E+00  0.00000000E+00  0.00000000E+00
  0.00000000E+00  0.00000000E+00  0.00000000E+00
  0.00000000E+00  0.00000000E+00  0.00000000E+00
  0.00000000E+00  0.00000000E+00  0.00000000E+00
  0.00000000E+00  0.00000000E+00  0.00000000E+00
  0.00000000E+00  0.00000000E+00  0.00000000E+00
  0.00000000E+00  0.00000000E+00  0.00000000E+00
  0.00000000E+00  0.00000000E+00  0.00000000E+00
  0.00000000E+00  0.00000000E+00  0.00000000E+00
  0.00000000E+00  0.00000000E+00  0.00000000E+00
  0.00000000E+00  0.00000000E+00  0.00000000E+00
  0.00000000E+00  0.00000000E+00  0.00000000E+00
  0.00000000E+00  0.00000000E+00  0.00000000E+00
  0.00000000E+00  0.00000000E+00  0.00000000E+00
  0.00000000E+00  0.00000000E+00  0.00000000E+00
  0.00000000E+00  0.00000000E+00  0.00000000E+00
  0.00000000E+00  0.00000000E+00  0.00000000E+00
  0.00000000E+00  0.00000000E+00  0.00000000E+00
  0.00000000E+00  0.00000000E+00  0.00000000E+00
  0.00000000E+00  0.00000000E+00  0.00000000E+00
  0.00000000E+00  0.00000000E+00  0.00000000E+00
  0.00000000E+00  0.00000000E+00  0.00000000E+00
  0.00000000E+00  0.00000000E+00  0.00000000E+00
  0.00000000E+00  0.00000000E+00  0.00000000E+00
  0.00000000E+00  0.00000000E+00  0.00000000E+00
  0.00000000E+00  0.00000000E+00  0.00000000E+00
  0.00000000E+00  0.00000000E+00  0.00000000E+00
  0.00000000E+00  0.00000000E+00  0.00000000E+00
  0.00000000E+00  0.00000000E+00  0.00000000E+00
  0.00000000E+00  0.00000000E+00  0.00000000E+00
  0.00000000E+00  0.00000000E+00  0.00000000E+00
