Ba10 Sr10 Co24 H4 O72                   
    1.000000000000000     
    11.1057150000000000    0.0000000000000000    0.0000000000000000
    -0.0047930000000000    5.5528550000000001    0.0000000000000000
     0.0000000000000000    0.0000000000000000   87.2902260000000041
   Ba   Sr   Co   H    O 
    10    10    24     4    72
Direct
 -0.0005989676348628 -0.0001816176239254  0.5550994080929114
  0.5003912170139575 -0.0004567745936648  0.5550993019197655
  0.2529173977185272  0.5003862350495285  0.6008009379944226
  0.7530025546408169  0.5011073317363367  0.6008550014786082
  0.0009709078735784 -0.0000442204686387  0.4637576159531135
  0.5009714950613265 -0.0000479167091528  0.4637575460479170
  0.2494610881831108  0.4959508317666477  0.5095674880645527
  0.7494588273352885  0.4959311009822235  0.5095923665060272
  0.2498711363726684  0.5017057535571762  0.4168498011131076
  0.7498705633306703  0.5017050318297679  0.4168500628674520
  0.2501060416048016  0.4942771797871712  0.5553134432858973
  0.7501478542733881  0.4956923260622507  0.5553195064604232
  0.5006999692352304  0.0071319899629140  0.6009744918321188
 -0.0000512334202866  0.0071705849914339  0.6010006369220838
  0.2527032518761028  0.4996068884543035  0.4633285035283430
  0.7527005766716428  0.4996163774231339  0.4633286088638900
  0.4998120083140530  0.9923906493648452  0.5090116880975769
 -0.0001698677535391  0.9923941880724848  0.5090116090262262
  0.5000898656793530  0.0007291218702856  0.4175718249954783
  0.0000878522665520  0.0007321892694375  0.4175720074119739
  0.2489045804323311  0.0089635877690817  0.6225146643031235
  0.7481564198102133  0.0102449167519428  0.6233690434717446
  0.0013134136089275  0.5095424505013401  0.6227268375763394
  0.5012570040096497  0.5093787192982420  0.6226909710394765
  0.9996198298136977  0.5089697813399385  0.5782563283872022
  0.4997317659040596  0.5089177911601200  0.5782588986807218
  0.2500448729986078  0.0018564440541396  0.5773791485534603
  0.7504359370364418  0.0083627379717208  0.5777754276669321
  0.2501112862887735  0.9991833703866367  0.5320603695504782
  0.7501031112283215  0.9993017199944814  0.5320659557607550
  0.9998402708068842  0.4996139294283165  0.5320335978419793
  0.4999123388035498  0.4995835391643063  0.5320326465457965
  0.9992281427526367  0.5062433077681224  0.4863954273859708
  0.4992392405368258  0.5062248455177597  0.4863957111867072
  0.2500476743144421  0.0002032720801048  0.4866984780914420
  0.7500498825139669  0.0002116168508696  0.4866981530762424
  0.2500595248954777 -0.0002716615380071  0.4413410414031071
  0.7500638921102109  0.9997307618795477  0.4413410415131960
  0.0001443821445628  0.4999795642317800  0.4413395188988540
  0.5001487664527455  0.4999841233503074  0.4413394733638702
  0.9981592139156574  0.5107351622975599  0.3953704661134271
  0.4981590414608141  0.5107359829733830  0.3953705476477946
  0.2518393333489718  0.0109958792901276  0.3953278807595468
  0.7518397830557998  0.0109959704554336  0.3953282174518317
  0.2499726436383239  0.8320742093402187  0.6465172907068039
  0.7487208900996206  0.8256598257165582  0.6466414408708608
 -0.0000287339965569  0.3320841807096595  0.6465200007041932
  0.4999743658416840  0.3321075772133042  0.6465198534860273
  0.0000600720255001  0.4920592632326655  0.6008721864818040
  0.5000640399346389  0.4920541685743627  0.6008710113467947
  0.9953070355805376  0.4998908577909913  0.5531779336795428
  0.5046946614891811  0.5000120265039292  0.5531783887076493
  0.1309012676676427  0.7917265422850464  0.6225531214106532
  0.6310059211839592  0.7876690761292374  0.6224132656305909
  0.3810528947434647  0.7126002776237814  0.6224137317804685
  0.8810472317093755  0.7125989250091347  0.6224146356291194
  0.3690430533464240  0.2123985492441010  0.6224094231808890
  0.8691422276423373  0.2082986425911738  0.6225549090742090
  0.1189486110530251  0.2874643276704507  0.6224156282004856
  0.6189604058879389  0.2874254052640736  0.6224169732872022
  0.2499973553696268 -0.0000547581506433  0.5542755922607229
  0.7499913161486079 -0.0000424830695646  0.5542769341970512
  0.2499900921693156 -0.0000040599369495  0.5995871674795176
  0.7499888582098124 -0.0000120766748471  0.5995888201768942
  0.3772086659579948  0.2802364802213299  0.5779932177336851
  0.8772389323081559  0.2801674631270549  0.5780249092727565
  0.1262689518328754  0.2247879444620932  0.5781155185208575
  0.6262636583699508  0.2248368417441839  0.5781176027643683
  0.1227895004602362  0.7198887959695227  0.5780181179584597
  0.6227630611715695  0.7202992873538012  0.5780929835918673
  0.3737550420394717  0.7751325176992017  0.5781164225351993
  0.8737481192189150  0.7751884339012640  0.5781188983478720
  0.9953149981873602  0.4999600722739421  0.5078620213225075
  0.4953153763073684  0.4999596864808075  0.5078620621555243
 -0.0000007213790763  0.4999649475886533  0.4644892449551435
  0.4999993948845023  0.4999643691853894  0.4644892583956399
  0.1380385761844440  0.7748402138609837  0.5327968573299646
  0.6380493615784838  0.7748716968431447  0.5327948154707335
  0.3880379907711486  0.7249744427694357  0.5327919095516699
  0.8880357904786792  0.7250209011976613  0.5327880206129413
  0.3619482285456355  0.2250580173227508  0.5327954391067417
  0.8619351023083829  0.2250253640797708  0.5327923555202351
  0.1119634501185379  0.2749533382455265  0.5327902611706676
  0.6119644291528276  0.2749061141427057  0.5327861570790451
  0.2500120607580971  0.9875205535963113  0.4635269440477203
  0.7500121676686635  0.9875208299191768  0.4635269087496712
  0.2499949981713684  0.9875758223217439  0.5088453219912743
  0.7499949526641855  0.9875754338835167  0.5088454191842591
  0.3928049468987805  0.2624650059758323  0.4869555185982825
  0.8928049582758458  0.2624649910374051  0.4869555433906111
  0.1428671257567747  0.2373906196376843  0.4864755342787239
  0.6428673304252847  0.2373909435668305  0.4864755517674159
  0.1072201501343015  0.7375528020443588  0.4869578317801352
  0.6072203043837785  0.7375529516663928  0.4869578588292525
  0.3571839367407714  0.7625047551262785  0.4864749869589116
  0.8571836931292663  0.7625047196568413  0.4864750074346806
  0.0000021442211184  0.4999590295517951  0.4191647646192158
  0.5000020532682720  0.4999591838157444  0.4191647418966750
  0.1380160054654752  0.7749416875616434  0.4406256157650632
  0.6380160336899864  0.7749416513223722  0.4406256302847286
  0.3857807431138774  0.7249747290140138  0.4406353682761238
  0.8857807598125427  0.7249747626548515  0.4406353824976818
  0.3619682915269805  0.2249879621621649  0.4406302498283142
  0.8619685960543055  0.2249876882834932  0.4406303080040845
  0.1142501280905223  0.2749396039317158  0.4406380571015621
  0.6142498579111705  0.2749395572586296  0.4406380826923760
  0.2499913020735610 -0.0000327142450701  0.4167662683139869
  0.7499913088791536 -0.0000327737701613  0.4167661556161124
  0.3881828927795675  0.2751245678010711  0.3937635689871452
  0.8881829250114698  0.2751246483035739  0.3937635717633990
  0.1380881508320868  0.2248092407397355  0.3937530576716373
  0.6380882847046152  0.2248088854406712  0.3937530637115724
  0.1118258286407951  0.7249320954084527  0.3937614135329782
  0.6118257589867935  0.7249318190951971  0.3937614134420839
  0.3619178409043007  0.7752268277840325  0.3937543664490244
  0.8619164725732558  0.7752266685844645  0.3937544295395559
  0.2559613178282795  0.0017748034106555  0.6430014524288036
  0.7547846665089967 -0.0005739717622094  0.6437814198452220
 -0.0059210986386091  0.5017809163206653  0.6430111954605514
  0.4940787456264883  0.5017802336024020  0.6430099168419250
 
  0.00000000E+00  0.00000000E+00  0.00000000E+00
  0.00000000E+00  0.00000000E+00  0.00000000E+00
  0.00000000E+00  0.00000000E+00  0.00000000E+00
  0.00000000E+00  0.00000000E+00  0.00000000E+00
  0.00000000E+00  0.00000000E+00  0.00000000E+00
  0.00000000E+00  0.00000000E+00  0.00000000E+00
  0.00000000E+00  0.00000000E+00  0.00000000E+00
  0.00000000E+00  0.00000000E+00  0.00000000E+00
  0.00000000E+00  0.00000000E+00  0.00000000E+00
  0.00000000E+00  0.00000000E+00  0.00000000E+00
  0.00000000E+00  0.00000000E+00  0.00000000E+00
  0.00000000E+00  0.00000000E+00  0.00000000E+00
  0.00000000E+00  0.00000000E+00  0.00000000E+00
  0.00000000E+00  0.00000000E+00  0.00000000E+00
  0.00000000E+00  0.00000000E+00  0.00000000E+00
  0.00000000E+00  0.00000000E+00  0.00000000E+00
  0.00000000E+00  0.00000000E+00  0.00000000E+00
  0.00000000E+00  0.00000000E+00  0.00000000E+00
  0.00000000E+00  0.00000000E+00  0.00000000E+00
  0.00000000E+00  0.00000000E+00  0.00000000E+00
  0.00000000E+00  0.00000000E+00  0.00000000E+00
  0.00000000E+00  0.00000000E+00  0.00000000E+00
  0.00000000E+00  0.00000000E+00  0.00000000E+00
  0.00000000E+00  0.00000000E+00  0.00000000E+00
  0.00000000E+00  0.00000000E+00  0.00000000E+00
  0.00000000E+00  0.00000000E+00  0.00000000E+00
  0.00000000E+00  0.00000000E+00  0.00000000E+00
  0.00000000E+00  0.00000000E+00  0.00000000E+00
  0.00000000E+00  0.00000000E+00  0.00000000E+00
  0.00000000E+00  0.00000000E+00  0.00000000E+00
  0.00000000E+00  0.00000000E+00  0.00000000E+00
  0.00000000E+00  0.00000000E+00  0.00000000E+00
  0.00000000E+00  0.00000000E+00  0.00000000E+00
  0.00000000E+00  0.00000000E+00  0.00000000E+00
  0.00000000E+00  0.00000000E+00  0.00000000E+00
  0.00000000E+00  0.00000000E+00  0.00000000E+00
  0.00000000E+00  0.00000000E+00  0.00000000E+00
  0.00000000E+00  0.00000000E+00  0.00000000E+00
  0.00000000E+00  0.00000000E+00  0.00000000E+00
  0.00000000E+00  0.00000000E+00  0.00000000E+00
  0.00000000E+00  0.00000000E+00  0.00000000E+00
  0.00000000E+00  0.00000000E+00  0.00000000E+00
  0.00000000E+00  0.00000000E+00  0.00000000E+00
  0.00000000E+00  0.00000000E+00  0.00000000E+00
  0.00000000E+00  0.00000000E+00  0.00000000E+00
  0.00000000E+00  0.00000000E+00  0.00000000E+00
  0.00000000E+00  0.00000000E+00  0.00000000E+00
  0.00000000E+00  0.00000000E+00  0.00000000E+00
  0.00000000E+00  0.00000000E+00  0.00000000E+00
  0.00000000E+00  0.00000000E+00  0.00000000E+00
  0.00000000E+00  0.00000000E+00  0.00000000E+00
  0.00000000E+00  0.00000000E+00  0.00000000E+00
  0.00000000E+00  0.00000000E+00  0.00000000E+00
  0.00000000E+00  0.00000000E+00  0.00000000E+00
  0.00000000E+00  0.00000000E+00  0.00000000E+00
  0.00000000E+00  0.00000000E+00  0.00000000E+00
  0.00000000E+00  0.00000000E+00  0.00000000E+00
  0.00000000E+00  0.00000000E+00  0.00000000E+00
  0.00000000E+00  0.00000000E+00  0.00000000E+00
  0.00000000E+00  0.00000000E+00  0.00000000E+00
  0.00000000E+00  0.00000000E+00  0.00000000E+00
  0.00000000E+00  0.00000000E+00  0.00000000E+00
  0.00000000E+00  0.00000000E+00  0.00000000E+00
  0.00000000E+00  0.00000000E+00  0.00000000E+00
  0.00000000E+00  0.00000000E+00  0.00000000E+00
  0.00000000E+00  0.00000000E+00  0.00000000E+00
  0.00000000E+00  0.00000000E+00  0.00000000E+00
  0.00000000E+00  0.00000000E+00  0.00000000E+00
  0.00000000E+00  0.00000000E+00  0.00000000E+00
  0.00000000E+00  0.00000000E+00  0.00000000E+00
  0.00000000E+00  0.00000000E+00  0.00000000E+00
  0.00000000E+00  0.00000000E+00  0.00000000E+00
  0.00000000E+00  0.00000000E+00  0.00000000E+00
  0.00000000E+00  0.00000000E+00  0.00000000E+00
  0.00000000E+00  0.00000000E+00  0.00000000E+00
  0.00000000E+00  0.00000000E+00  0.00000000E+00
  0.00000000E+00  0.00000000E+00  0.00000000E+00
  0.00000000E+00  0.00000000E+00  0.00000000E+00
  0.00000000E+00  0.00000000E+00  0.00000000E+00
  0.00000000E+00  0.00000000E+00  0.00000000E+00
  0.00000000E+00  0.00000000E+00  0.00000000E+00
  0.00000000E+00  0.00000000E+00  0.00000000E+00
  0.00000000E+00  0.00000000E+00  0.00000000E+00
  0.00000000E+00  0.00000000E+00  0.00000000E+00
  0.00000000E+00  0.00000000E+00  0.00000000E+00
  0.00000000E+00  0.00000000E+00  0.00000000E+00
  0.00000000E+00  0.00000000E+00  0.00000000E+00
  0.00000000E+00  0.00000000E+00  0.00000000E+00
  0.00000000E+00  0.00000000E+00  0.00000000E+00
  0.00000000E+00  0.00000000E+00  0.00000000E+00
  0.00000000E+00  0.00000000E+00  0.00000000E+00
  0.00000000E+00  0.00000000E+00  0.00000000E+00
  0.00000000E+00  0.00000000E+00  0.00000000E+00
  0.00000000E+00  0.00000000E+00  0.00000000E+00
  0.00000000E+00  0.00000000E+00  0.00000000E+00
  0.00000000E+00  0.00000000E+00  0.00000000E+00
  0.00000000E+00  0.00000000E+00  0.00000000E+00
  0.00000000E+00  0.00000000E+00  0.00000000E+00
  0.00000000E+00  0.00000000E+00  0.00000000E+00
  0.00000000E+00  0.00000000E+00  0.00000000E+00
  0.00000000E+00  0.00000000E+00  0.00000000E+00
  0.00000000E+00  0.00000000E+00  0.00000000E+00
  0.00000000E+00  0.00000000E+00  0.00000000E+00
  0.00000000E+00  0.00000000E+00  0.00000000E+00
  0.00000000E+00  0.00000000E+00  0.00000000E+00
  0.00000000E+00  0.00000000E+00  0.00000000E+00
  0.00000000E+00  0.00000000E+00  0.00000000E+00
  0.00000000E+00  0.00000000E+00  0.00000000E+00
  0.00000000E+00  0.00000000E+00  0.00000000E+00
  0.00000000E+00  0.00000000E+00  0.00000000E+00
  0.00000000E+00  0.00000000E+00  0.00000000E+00
  0.00000000E+00  0.00000000E+00  0.00000000E+00
  0.00000000E+00  0.00000000E+00  0.00000000E+00
  0.00000000E+00  0.00000000E+00  0.00000000E+00
  0.00000000E+00  0.00000000E+00  0.00000000E+00
  0.00000000E+00  0.00000000E+00  0.00000000E+00
  0.00000000E+00  0.00000000E+00  0.00000000E+00
  0.00000000E+00  0.00000000E+00  0.00000000E+00
  0.00000000E+00  0.00000000E+00  0.00000000E+00
  0.00000000E+00  0.00000000E+00  0.00000000E+00
