Pd2
1.0
   1.9586507849999997   -0.0000000000000000    1.9586507849999997
   1.9586507849999997   -0.0000000000000000   -1.9586507849999995
  -0.0000000000000002    3.9173015699999993    0.0000000000000002
Pd
2
direct
   1.0000000000000000    0.9999999999999999    0.0000000000000000 Pd
   0.5000000000000000    0.4999999999999998    0.5000000000000000 Pd
