Ba10 Sr10 Co24 H4 O72                   
    1.000000000000000     
    11.1057150000000000    0.0000000000000000    0.0000000000000000
    -0.0047930000000000    5.5528550000000001    0.0000000000000000
     0.0000000000000000    0.0000000000000000   87.2902260000000041
   Ba   Sr   Co   H    O 
    10    10    24     4    72
Direct
  0.9993023061631818 -0.0003856451648701  0.5550218535852561
  0.5001342852020700 -0.0006394336157855  0.5550306482805151
  0.2529344604929558  0.5003959487746317  0.6007598256229564
  0.7529556326833451  0.5003326573892473  0.6007763734253325
  0.0004993429333180  0.0000823406090278  0.4636788735844212
  0.5004999619995801  0.0000701435195915  0.4636791574071504
  0.2492948342625484  0.4966643188884508  0.5094028928989162
  0.7492947524398456  0.4966485074103257  0.5094054390590758
  0.2497938817126805  0.5018408936199192  0.4167905768567490
  0.7497958853695113  0.5018536964234651  0.4167908482027848
  0.2499744304632895  0.4923204174595646  0.5552048349358739
  0.7499552553354674  0.4922294492203420  0.5551817558946941
  0.5006869569479779  0.0073992405508568  0.6009455779214976
  0.0000296305688969  0.0055938270056790  0.6009295328804557
  0.2526778337869737  0.4996790676659659  0.4633016057248645
  0.7526777092168406  0.4996739530228211  0.4633019589059466
  0.4994147003867438  0.9930779097672878  0.5088074099760543
  0.9994221957546799  0.9931065171302852  0.5088064053366299
  0.4999988088904309  0.0007406088463130  0.4175356102207469
 -0.0000017359988903  0.0007410004668577  0.4175355717862376
  0.2486184312994189  0.0101697077172109  0.6226142269679332
  0.7487528095650721  0.0104415781941475  0.6232753047976402
  0.0016485218248171  0.5106284668591387  0.6228193205449585
  0.5016405232611120  0.5108799086673964  0.6228133863815518
  0.9996423755754904  0.5085437354913519  0.5782344554141536
  0.4997653512015031  0.5084939207854884  0.5782426212440058
  0.2499270971852646  0.0008867439320729  0.5773649270699956
  0.7498772577995939  0.0008608197637841  0.5773799461911878
  0.2500461340688705 -0.0008957182763344  0.5320482608959046
  0.7500411690176871 -0.0008826303663881  0.5320457958728131
 -0.0002186163867014  0.4995550383532393  0.5320212070042276
  0.4998429877894025  0.4995641666831206  0.5320222985765389
  0.9992036169614384  0.5064411223262557  0.4863628469937392
  0.4991871407272312  0.5063652252673226  0.4863636097786519
  0.2499922729373457  0.0002514120771003  0.4866867361772722
  0.7499936794823074  0.0002512764026505  0.4866861099390119
  0.2499798436896708 -0.0002287303747379  0.4413234811022630
  0.7499772726306376 -0.0002255669312111  0.4413235702945039
  0.0001698266381085  0.4999992281602517  0.4413216301078719
  0.5001676249319978  0.5000021766630430  0.4413216709346113
  0.9981291459003723  0.5108024087218415  0.3953256620914071
  0.4981285556274793  0.5108027366034534  0.3953257759158235
  0.2517914268925210  0.0109741074314600  0.3953014339722649
  0.7517918145517958  0.0109756224109358  0.3953017702872829
  0.2483726391221301  0.1769825029601079  0.6469292592394227
  0.7500965945521876  0.1774172553092329  0.6470978411667458
  0.0017607389121808  0.6769109589554946  0.6469429257781701
  0.5017584428492302  0.6769057998107471  0.6469451527415041
  0.0001490214784893  0.5077683832024343  0.6008654969848130
  0.4999933679837931  0.4919700421426992  0.6008725196651550
  0.9952993615712218  0.4999104449359005  0.5531752148328131
  0.5046987212290610  0.5000241020918921  0.5531749907194962
  0.1308808386954633  0.7917603330870938  0.6225520772597897
  0.6310014504915403  0.7876740573694762  0.6224109409368769
  0.3810330539936063  0.7126381729161738  0.6224131900852168
  0.8810234937182521  0.7126490920043920  0.6224154002241958
  0.3690483818302765  0.2124574335080229  0.6228838850418781
  0.8690349912294349  0.2124152664711792  0.6224106293182485
  0.1189497538130714  0.2874845624863441  0.6224122248258505
  0.6189640680241132  0.2874398329847821  0.6224147968682784
  0.2499950097271930 -0.0000424900058379  0.5542731172765152
  0.7499947414389269 -0.0000433440197704  0.5542736066273907
  0.2500110808267413 -0.0000224303119889  0.5995849036757910
  0.7499982096032737 -0.0000449403367213  0.5995818901991172
  0.3771955577329406  0.2802156227367196  0.5779783294272328
  0.8772431716213019  0.2802124322683262  0.5780088071419592
  0.1262602555353032  0.2248038008303742  0.5781137886196469
  0.6262682196585695  0.2247771667776778  0.5781136245264729
  0.1228444029410919  0.7198885694852293  0.5779760492913744
  0.6228308220644637  0.7198983814143577  0.5779979626973671
  0.3737566247059205  0.7751312335444951  0.5781143786021417
  0.8737471438119067  0.7751576608355060  0.5781141867454419
  0.9953064828214186  0.4999673376883534  0.5078584631224103
  0.4953067970963161  0.4999679741049515  0.5078584241273559
 -0.0000033497953260  0.4999668559119798  0.4644864066845034
  0.4999966823235151  0.4999662352300139  0.4644864275707706
  0.1380416517325691  0.7748427938792670  0.5327945752662906
  0.6380562589146601  0.7748754037363864  0.5327916802127046
  0.3880386213092482  0.7249704825413318  0.5327898133928985
  0.8880351523676902  0.7250174622419571  0.5327858499641313
  0.3619351225095370  0.2250594732273143  0.5327919905336060
  0.8619247964994777  0.2250309761948393  0.5327898158367640
  0.1119581605329732  0.2749624662161957  0.5327879918656843
  0.6119606841498116  0.2749135474761991  0.5327839604524859
  0.2500078902792650  0.9875231206293992  0.4635256370300002
  0.7500079329721304  0.9875232207857789  0.4635256090345764
  0.2499936531973361  0.9875805688414798  0.5088436961202666
  0.7499936704936863  0.9875804992876156  0.5088438167597665
  0.3928015387605504  0.2624656352028885  0.4869539774742961
  0.8928022744326398  0.2624664767784580  0.4869539920467506
  0.1428618080581166  0.2373906001673784  0.4864740000054579
  0.6428618502292676  0.2373904982669467  0.4864739771427730
  0.1072189826357091  0.7375610543857580  0.4869560623181555
  0.6072182411888545  0.7375601161918377  0.4869560846274731
  0.3571851923787798  0.7625083708417106  0.4864734780124749
  0.8571853120223707  0.7625085585017013  0.4864734575968271
 -0.0000016024636261  0.4999608535085014  0.4191618917283381
  0.4999983179083690  0.4999610337477658  0.4191618898574057
  0.1380128623287681  0.7749436711296454  0.4406236391233260
  0.6380128333157730  0.7749436548332788  0.4406236357494855
  0.3857797457633073  0.7249758169481243  0.4406333302835954
  0.8857798458111310  0.7249756945338092  0.4406333404983129
  0.3619654132125514  0.2249933469454532  0.4406281223908212
  0.8619653675336002  0.2249933082552430  0.4406281355307159
  0.1142418214187119  0.2749506352216022  0.4406351087718223
  0.6142417696806620  0.2749507164396899  0.4406351228437218
  0.2499890331546977 -0.0000292915604881  0.4167634472496937
  0.7499891115221411 -0.0000291172625024  0.4167633608361408
  0.3881797022596511  0.2751291514307996  0.3937608195617452
  0.8881797420606115  0.2751291504312783  0.3937608242471781
  0.1380840998832490  0.2248191390780694  0.3937504277068659
  0.6380841631734018  0.2248189294806117  0.3937504335207572
  0.1118330197031219  0.7249483300450585  0.3937566587621685
  0.6118307845465809  0.7249291778324856  0.3937577614682486
  0.3619146344228069  0.7752297501999318  0.3937517784492630
  0.8619109204219801  0.7752270146368256  0.3937517583053843
  0.2499742377310221  0.0121963528487596  0.6432208723146620
  0.7497611305345970  0.0122597846731952  0.6437686488920003
 -0.0000116212452862  0.5122184016554533  0.6432249066186462
  0.4999967092659831  0.5122226876107484  0.6432249065106115
 
  0.00000000E+00  0.00000000E+00  0.00000000E+00
  0.00000000E+00  0.00000000E+00  0.00000000E+00
  0.00000000E+00  0.00000000E+00  0.00000000E+00
  0.00000000E+00  0.00000000E+00  0.00000000E+00
  0.00000000E+00  0.00000000E+00  0.00000000E+00
  0.00000000E+00  0.00000000E+00  0.00000000E+00
  0.00000000E+00  0.00000000E+00  0.00000000E+00
  0.00000000E+00  0.00000000E+00  0.00000000E+00
  0.00000000E+00  0.00000000E+00  0.00000000E+00
  0.00000000E+00  0.00000000E+00  0.00000000E+00
  0.00000000E+00  0.00000000E+00  0.00000000E+00
  0.00000000E+00  0.00000000E+00  0.00000000E+00
  0.00000000E+00  0.00000000E+00  0.00000000E+00
  0.00000000E+00  0.00000000E+00  0.00000000E+00
  0.00000000E+00  0.00000000E+00  0.00000000E+00
  0.00000000E+00  0.00000000E+00  0.00000000E+00
  0.00000000E+00  0.00000000E+00  0.00000000E+00
  0.00000000E+00  0.00000000E+00  0.00000000E+00
  0.00000000E+00  0.00000000E+00  0.00000000E+00
  0.00000000E+00  0.00000000E+00  0.00000000E+00
  0.00000000E+00  0.00000000E+00  0.00000000E+00
  0.00000000E+00  0.00000000E+00  0.00000000E+00
  0.00000000E+00  0.00000000E+00  0.00000000E+00
  0.00000000E+00  0.00000000E+00  0.00000000E+00
  0.00000000E+00  0.00000000E+00  0.00000000E+00
  0.00000000E+00  0.00000000E+00  0.00000000E+00
  0.00000000E+00  0.00000000E+00  0.00000000E+00
  0.00000000E+00  0.00000000E+00  0.00000000E+00
  0.00000000E+00  0.00000000E+00  0.00000000E+00
  0.00000000E+00  0.00000000E+00  0.00000000E+00
  0.00000000E+00  0.00000000E+00  0.00000000E+00
  0.00000000E+00  0.00000000E+00  0.00000000E+00
  0.00000000E+00  0.00000000E+00  0.00000000E+00
  0.00000000E+00  0.00000000E+00  0.00000000E+00
  0.00000000E+00  0.00000000E+00  0.00000000E+00
  0.00000000E+00  0.00000000E+00  0.00000000E+00
  0.00000000E+00  0.00000000E+00  0.00000000E+00
  0.00000000E+00  0.00000000E+00  0.00000000E+00
  0.00000000E+00  0.00000000E+00  0.00000000E+00
  0.00000000E+00  0.00000000E+00  0.00000000E+00
  0.00000000E+00  0.00000000E+00  0.00000000E+00
  0.00000000E+00  0.00000000E+00  0.00000000E+00
  0.00000000E+00  0.00000000E+00  0.00000000E+00
  0.00000000E+00  0.00000000E+00  0.00000000E+00
  0.00000000E+00  0.00000000E+00  0.00000000E+00
  0.00000000E+00  0.00000000E+00  0.00000000E+00
  0.00000000E+00  0.00000000E+00  0.00000000E+00
  0.00000000E+00  0.00000000E+00  0.00000000E+00
  0.00000000E+00  0.00000000E+00  0.00000000E+00
  0.00000000E+00  0.00000000E+00  0.00000000E+00
  0.00000000E+00  0.00000000E+00  0.00000000E+00
  0.00000000E+00  0.00000000E+00  0.00000000E+00
  0.00000000E+00  0.00000000E+00  0.00000000E+00
  0.00000000E+00  0.00000000E+00  0.00000000E+00
  0.00000000E+00  0.00000000E+00  0.00000000E+00
  0.00000000E+00  0.00000000E+00  0.00000000E+00
  0.00000000E+00  0.00000000E+00  0.00000000E+00
  0.00000000E+00  0.00000000E+00  0.00000000E+00
  0.00000000E+00  0.00000000E+00  0.00000000E+00
  0.00000000E+00  0.00000000E+00  0.00000000E+00
  0.00000000E+00  0.00000000E+00  0.00000000E+00
  0.00000000E+00  0.00000000E+00  0.00000000E+00
  0.00000000E+00  0.00000000E+00  0.00000000E+00
  0.00000000E+00  0.00000000E+00  0.00000000E+00
  0.00000000E+00  0.00000000E+00  0.00000000E+00
  0.00000000E+00  0.00000000E+00  0.00000000E+00
  0.00000000E+00  0.00000000E+00  0.00000000E+00
  0.00000000E+00  0.00000000E+00  0.00000000E+00
  0.00000000E+00  0.00000000E+00  0.00000000E+00
  0.00000000E+00  0.00000000E+00  0.00000000E+00
  0.00000000E+00  0.00000000E+00  0.00000000E+00
  0.00000000E+00  0.00000000E+00  0.00000000E+00
  0.00000000E+00  0.00000000E+00  0.00000000E+00
  0.00000000E+00  0.00000000E+00  0.00000000E+00
  0.00000000E+00  0.00000000E+00  0.00000000E+00
  0.00000000E+00  0.00000000E+00  0.00000000E+00
  0.00000000E+00  0.00000000E+00  0.00000000E+00
  0.00000000E+00  0.00000000E+00  0.00000000E+00
  0.00000000E+00  0.00000000E+00  0.00000000E+00
  0.00000000E+00  0.00000000E+00  0.00000000E+00
  0.00000000E+00  0.00000000E+00  0.00000000E+00
  0.00000000E+00  0.00000000E+00  0.00000000E+00
  0.00000000E+00  0.00000000E+00  0.00000000E+00
  0.00000000E+00  0.00000000E+00  0.00000000E+00
  0.00000000E+00  0.00000000E+00  0.00000000E+00
  0.00000000E+00  0.00000000E+00  0.00000000E+00
  0.00000000E+00  0.00000000E+00  0.00000000E+00
  0.00000000E+00  0.00000000E+00  0.00000000E+00
  0.00000000E+00  0.00000000E+00  0.00000000E+00
  0.00000000E+00  0.00000000E+00  0.00000000E+00
  0.00000000E+00  0.00000000E+00  0.00000000E+00
  0.00000000E+00  0.00000000E+00  0.00000000E+00
  0.00000000E+00  0.00000000E+00  0.00000000E+00
  0.00000000E+00  0.00000000E+00  0.00000000E+00
  0.00000000E+00  0.00000000E+00  0.00000000E+00
  0.00000000E+00  0.00000000E+00  0.00000000E+00
  0.00000000E+00  0.00000000E+00  0.00000000E+00
  0.00000000E+00  0.00000000E+00  0.00000000E+00
  0.00000000E+00  0.00000000E+00  0.00000000E+00
  0.00000000E+00  0.00000000E+00  0.00000000E+00
  0.00000000E+00  0.00000000E+00  0.00000000E+00
  0.00000000E+00  0.00000000E+00  0.00000000E+00
  0.00000000E+00  0.00000000E+00  0.00000000E+00
  0.00000000E+00  0.00000000E+00  0.00000000E+00
  0.00000000E+00  0.00000000E+00  0.00000000E+00
  0.00000000E+00  0.00000000E+00  0.00000000E+00
  0.00000000E+00  0.00000000E+00  0.00000000E+00
  0.00000000E+00  0.00000000E+00  0.00000000E+00
  0.00000000E+00  0.00000000E+00  0.00000000E+00
  0.00000000E+00  0.00000000E+00  0.00000000E+00
  0.00000000E+00  0.00000000E+00  0.00000000E+00
  0.00000000E+00  0.00000000E+00  0.00000000E+00
  0.00000000E+00  0.00000000E+00  0.00000000E+00
  0.00000000E+00  0.00000000E+00  0.00000000E+00
  0.00000000E+00  0.00000000E+00  0.00000000E+00
  0.00000000E+00  0.00000000E+00  0.00000000E+00
  0.00000000E+00  0.00000000E+00  0.00000000E+00
  0.00000000E+00  0.00000000E+00  0.00000000E+00
  0.00000000E+00  0.00000000E+00  0.00000000E+00
  0.00000000E+00  0.00000000E+00  0.00000000E+00
