H1 Ir32 O68                             
   1.00000000000000     
     6.3790139999999997    0.0000000000000000    0.0000000000000000
     0.0000000000000000   12.8550290000000000    0.0000000000000000
     0.0000000000000000    0.0000000000000000   38.5650860000000009
   H    Ir   O 
     1    32    68
Direct
  0.1502086777831629  0.6250000335163217  0.6832959247672268
  0.2499305653255515  0.1250000438317588  0.3735358391573401
  0.2499311966852865  0.6250001617500622  0.3735349415500616
  0.7499277902649049  0.1249998689319578  0.3735356771556062
  0.7499223761260969  0.6250001197491354  0.3735360399336539
 -0.0000634035176441  0.3749989663868395  0.3762529382075212
 -0.0000634556187145  0.8750012877059765  0.3762535808898644
  0.4999366513787190  0.3749995592855685  0.3762557176585413
  0.4999366737965842  0.8750006909037132  0.3762554953392279
  0.2499302530478841  0.3750051778185804  0.4579838280241447
  0.2499303889828345  0.8749952569001999  0.4579838120552414
  0.7499320853620361  0.3750069786085108  0.4579837223721683
  0.7499319484784449  0.8749934583580526  0.4579837087628532
 -0.0000785078940644  0.1250000186498047  0.4579369581163315
 -0.0000821639830314  0.6250000204804506  0.4579339221429455
  0.4999250655569725  0.1250003784575555  0.4579373951070301
  0.4998282061227312  0.6250016323098592  0.4579291170407344
  0.2499288544640803  0.1249999156098324  0.5412637467129936
  0.2500488018303227  0.6250004432561274  0.5412951200118549
  0.7499381857588757  0.1250007720460085  0.5412633216257166
  0.7499285663468657  0.6250002890366996  0.5412718186837271
 -0.0000961689825615  0.3749427287776881  0.5419548410704672
 -0.0000962212461010  0.8750575170252181  0.5419548641473433
  0.4999098349644853  0.3749669290776246  0.5419521564048841
  0.4999099599017433  0.8750333086092661  0.5419521907817304
  0.2499373747609055  0.3750307191653663  0.6263389995127141
  0.2499364068221240  0.8749685933821651  0.6263398116151999
  0.7496973078668172  0.3752345965558087  0.6263418560448764
  0.7496973838500015  0.8747656515349413  0.6263424283123299
 -0.0000987594902609  0.1250002021318220  0.6263005458314943
  0.0021014805029642  0.6249992278715911  0.6246065654979630
  0.4999695481259812  0.1250002075948051  0.6262956332573277
  0.5013836072271509  0.6249994949445642  0.6261159095158672
 -0.0000185473791222  0.1250000162863757  0.3423473083034513
 -0.0000185061911183  0.6250000073015725  0.3423471132401389
  0.4999813845335218  0.1250000125325661  0.3423472532071257
  0.4999811037217499  0.6250000107792046  0.3423471727671686
  0.2499771932481645  0.2771423620650411  0.3749547584636150
  0.2499779118779176  0.7771424569475960  0.3749547709029653
  0.7499784639803401  0.2771423588272516  0.3749547534147532
  0.7499776797546834  0.7771424284033518  0.3749547736737897
 -0.0000311063867649  0.1250000405803936  0.4075693925019924
 -0.0000321755952226  0.6250000400828875  0.4075689739254361
  0.4999694305101967  0.1250000445271325  0.4075693059609228
  0.4999708236300318  0.6250000448817553  0.4075684471298365
  0.2499779596513009  0.4728576310328111  0.3749547745394843
  0.2499771484016859  0.9728577181530058  0.3749547636441469
  0.7499776394781518  0.4728576566584737  0.3749547776788622
  0.7499785084160308  0.9728577134264306  0.3749547593204249
 -0.0000238833164602  0.3749999240990776  0.4257201404904925
 -0.0000238892172411  0.8750001423665245  0.4257201573600750
  0.4999763139368774  0.3749998760989792  0.4257204497584311
  0.4999763126397984  0.8750001898578555  0.4257204442310479
  0.2499750709184335  0.0271470699436094  0.4583138039878240
  0.2499727949405743  0.5271476371574558  0.4583138092224375
  0.7499742708888326  0.0271471016197086  0.4583138006287701
  0.7499659403033420  0.5271480775801213  0.4583139871554041
 -0.0000259394551738  0.3749996871722210  0.4909451841005576
 -0.0000259421794461  0.8750003844708933  0.4909451872591846
  0.4999744433997880  0.3750001845421907  0.4909462056770593
  0.4999744419783880  0.8749998856810957  0.4909462029514157
  0.2499750284910588  0.2228530243129553  0.4583138043901898
  0.2499727361918293  0.7228524954942173  0.4583138101200225
  0.7499743258657775  0.2228529938424689  0.4583138015523420
  0.7499660038730847  0.7228520557140529  0.4583139880332815
 -0.0000199591995475  0.1250000352497631  0.5090158909631464
 -0.0000071535913527  0.6250000294748448  0.5090169005847788
  0.4999791051562799  0.1250000370532825  0.5090160350602762
  0.4999112799279259  0.6250000339238380  0.5090180231881651
  0.2499735201682193  0.2771370794362906  0.5416515666008652
  0.2499858819922415  0.7771454234939218  0.5416514016536083
  0.7499753554092919  0.2771364612714730  0.5416515370716993
  0.7499662262534548  0.7771444158929826  0.5416516897844060
 -0.0000256002117524  0.1250000399454509  0.5742629845169274
 -0.0004052910315542  0.6250000399381137  0.5742301331822893
  0.4999770927649164  0.1250000429674776  0.5742629356655067
  0.4999505682359409  0.6250000430507265  0.5742601106964512
  0.2499858784372863  0.4728546922534727  0.5416514020629691
  0.2499735280942614  0.9728629930576441  0.5416515669782209
  0.7499662335537622  0.4728556893452655  0.5416516906591397
  0.7499753635100931  0.9728636545103737  0.5416515369343990
 -0.0000359631704258  0.3750034935374079  0.5923885626038400
 -0.0000359669525647  0.8749965689514759  0.5923885785457847
  0.4999611365351341  0.3749964515177632  0.5923882691296535
  0.4999610604446162  0.8750036099658303  0.5923882854753584
  0.2499958829197395  0.0278683195111606  0.6238510571769370
  0.2500355967115013  0.5278656081342269  0.6238512373449452
  0.7500041892485662  0.0278667628344698  0.6238510506681240
  0.7500275552048831  0.5278801480763828  0.6238563123628186
 -0.0000116843941395  0.3749959684295298  0.6576100626336630
 -0.0000117185522375  0.8750040779445108  0.6576100762266700
  0.4999603265219719  0.3750029924703379  0.6576112533935820
  0.4999602882173528  0.8749970486613646  0.6576112664869163
  0.2499942916272355  0.2221282243192471  0.6238502458427837
  0.2500355138122795  0.7221328596933472  0.6238509170217413
  0.7500044514800362  0.2221335238830928  0.6238511693274347
  0.7500276906445182  0.7221221625567795  0.6238564266538889
 -0.0000289990287043  0.1249999909345284  0.6722383989336480
  0.4999636661593728  0.1249999908904034  0.6722390136531566
  0.4995055697899088  0.6249999937176743  0.6722347454797000
  0.0080056317993309  0.6249989704023718  0.6736483625368848
 
  0.00000000E+00  0.00000000E+00  0.00000000E+00
  0.00000000E+00  0.00000000E+00  0.00000000E+00
  0.00000000E+00  0.00000000E+00  0.00000000E+00
  0.00000000E+00  0.00000000E+00  0.00000000E+00
  0.00000000E+00  0.00000000E+00  0.00000000E+00
  0.00000000E+00  0.00000000E+00  0.00000000E+00
  0.00000000E+00  0.00000000E+00  0.00000000E+00
  0.00000000E+00  0.00000000E+00  0.00000000E+00
  0.00000000E+00  0.00000000E+00  0.00000000E+00
  0.00000000E+00  0.00000000E+00  0.00000000E+00
  0.00000000E+00  0.00000000E+00  0.00000000E+00
  0.00000000E+00  0.00000000E+00  0.00000000E+00
  0.00000000E+00  0.00000000E+00  0.00000000E+00
  0.00000000E+00  0.00000000E+00  0.00000000E+00
  0.00000000E+00  0.00000000E+00  0.00000000E+00
  0.00000000E+00  0.00000000E+00  0.00000000E+00
  0.00000000E+00  0.00000000E+00  0.00000000E+00
  0.00000000E+00  0.00000000E+00  0.00000000E+00
  0.00000000E+00  0.00000000E+00  0.00000000E+00
  0.00000000E+00  0.00000000E+00  0.00000000E+00
  0.00000000E+00  0.00000000E+00  0.00000000E+00
  0.00000000E+00  0.00000000E+00  0.00000000E+00
  0.00000000E+00  0.00000000E+00  0.00000000E+00
  0.00000000E+00  0.00000000E+00  0.00000000E+00
  0.00000000E+00  0.00000000E+00  0.00000000E+00
  0.00000000E+00  0.00000000E+00  0.00000000E+00
  0.00000000E+00  0.00000000E+00  0.00000000E+00
  0.00000000E+00  0.00000000E+00  0.00000000E+00
  0.00000000E+00  0.00000000E+00  0.00000000E+00
  0.00000000E+00  0.00000000E+00  0.00000000E+00
  0.00000000E+00  0.00000000E+00  0.00000000E+00
  0.00000000E+00  0.00000000E+00  0.00000000E+00
  0.00000000E+00  0.00000000E+00  0.00000000E+00
  0.00000000E+00  0.00000000E+00  0.00000000E+00
  0.00000000E+00  0.00000000E+00  0.00000000E+00
  0.00000000E+00  0.00000000E+00  0.00000000E+00
  0.00000000E+00  0.00000000E+00  0.00000000E+00
  0.00000000E+00  0.00000000E+00  0.00000000E+00
  0.00000000E+00  0.00000000E+00  0.00000000E+00
  0.00000000E+00  0.00000000E+00  0.00000000E+00
  0.00000000E+00  0.00000000E+00  0.00000000E+00
  0.00000000E+00  0.00000000E+00  0.00000000E+00
  0.00000000E+00  0.00000000E+00  0.00000000E+00
  0.00000000E+00  0.00000000E+00  0.00000000E+00
  0.00000000E+00  0.00000000E+00  0.00000000E+00
  0.00000000E+00  0.00000000E+00  0.00000000E+00
  0.00000000E+00  0.00000000E+00  0.00000000E+00
  0.00000000E+00  0.00000000E+00  0.00000000E+00
  0.00000000E+00  0.00000000E+00  0.00000000E+00
  0.00000000E+00  0.00000000E+00  0.00000000E+00
  0.00000000E+00  0.00000000E+00  0.00000000E+00
  0.00000000E+00  0.00000000E+00  0.00000000E+00
  0.00000000E+00  0.00000000E+00  0.00000000E+00
  0.00000000E+00  0.00000000E+00  0.00000000E+00
  0.00000000E+00  0.00000000E+00  0.00000000E+00
  0.00000000E+00  0.00000000E+00  0.00000000E+00
  0.00000000E+00  0.00000000E+00  0.00000000E+00
  0.00000000E+00  0.00000000E+00  0.00000000E+00
  0.00000000E+00  0.00000000E+00  0.00000000E+00
  0.00000000E+00  0.00000000E+00  0.00000000E+00
  0.00000000E+00  0.00000000E+00  0.00000000E+00
  0.00000000E+00  0.00000000E+00  0.00000000E+00
  0.00000000E+00  0.00000000E+00  0.00000000E+00
  0.00000000E+00  0.00000000E+00  0.00000000E+00
  0.00000000E+00  0.00000000E+00  0.00000000E+00
  0.00000000E+00  0.00000000E+00  0.00000000E+00
  0.00000000E+00  0.00000000E+00  0.00000000E+00
  0.00000000E+00  0.00000000E+00  0.00000000E+00
  0.00000000E+00  0.00000000E+00  0.00000000E+00
  0.00000000E+00  0.00000000E+00  0.00000000E+00
  0.00000000E+00  0.00000000E+00  0.00000000E+00
  0.00000000E+00  0.00000000E+00  0.00000000E+00
  0.00000000E+00  0.00000000E+00  0.00000000E+00
  0.00000000E+00  0.00000000E+00  0.00000000E+00
  0.00000000E+00  0.00000000E+00  0.00000000E+00
  0.00000000E+00  0.00000000E+00  0.00000000E+00
  0.00000000E+00  0.00000000E+00  0.00000000E+00
  0.00000000E+00  0.00000000E+00  0.00000000E+00
  0.00000000E+00  0.00000000E+00  0.00000000E+00
  0.00000000E+00  0.00000000E+00  0.00000000E+00
  0.00000000E+00  0.00000000E+00  0.00000000E+00
  0.00000000E+00  0.00000000E+00  0.00000000E+00
  0.00000000E+00  0.00000000E+00  0.00000000E+00
  0.00000000E+00  0.00000000E+00  0.00000000E+00
  0.00000000E+00  0.00000000E+00  0.00000000E+00
  0.00000000E+00  0.00000000E+00  0.00000000E+00
  0.00000000E+00  0.00000000E+00  0.00000000E+00
  0.00000000E+00  0.00000000E+00  0.00000000E+00
  0.00000000E+00  0.00000000E+00  0.00000000E+00
  0.00000000E+00  0.00000000E+00  0.00000000E+00
  0.00000000E+00  0.00000000E+00  0.00000000E+00
  0.00000000E+00  0.00000000E+00  0.00000000E+00
  0.00000000E+00  0.00000000E+00  0.00000000E+00
  0.00000000E+00  0.00000000E+00  0.00000000E+00
  0.00000000E+00  0.00000000E+00  0.00000000E+00
  0.00000000E+00  0.00000000E+00  0.00000000E+00
  0.00000000E+00  0.00000000E+00  0.00000000E+00
  0.00000000E+00  0.00000000E+00  0.00000000E+00
  0.00000000E+00  0.00000000E+00  0.00000000E+00
  0.00000000E+00  0.00000000E+00  0.00000000E+00
  0.00000000E+00  0.00000000E+00  0.00000000E+00
