Pd2                                     
    1.000000000000000     
     1.9586507849999997   -0.0000000000000000    1.9586507849999997
     1.9586507849999997   -0.0000000000000000   -1.9586507849999995
    -0.0000000000000002    3.9173015699999993    0.0000000000000002
   Pd
     2
Direct
  0.0000000000000000  0.0000000000000000  0.0000000000000000
  0.5000000000000000  0.5000000000000000  0.5000000000000000
 
  0.00000000E+00  0.00000000E+00  0.00000000E+00
  0.00000000E+00  0.00000000E+00  0.00000000E+00
