Ba10 Sr10 Co24 H1 O69                   
    1.000000000000000     
    11.1057150000000000    0.0000000000000000    0.0000000000000000
    -0.0047930000000000    5.5528550000000001    0.0000000000000000
     0.0000000000000000    0.0000000000000000   87.2902260000000041
   Ba   Sr   Co   H    O 
    10    10    24     1    69
Direct
  0.9993755604005180  0.9985982016882496  0.5550955990469932
  0.5004651405141958  0.9980991311382941  0.5550824340735367
  0.2468551198861979  0.5004668329204671  0.6008751107976721
  0.7539247387955453  0.5005838364428526  0.6007603499729047
  0.0003463153275007  0.9982973637109002  0.4637523090862559
  0.5002713497237680  0.9982133680393471  0.4637526640284991
  0.2495263617511064  0.4954519971213409  0.5096170696680955
  0.7494536212773748  0.4954369777233789  0.5096324245110211
  0.2495352890459828  0.5004670689319394  0.4168837850864418
  0.7494299610068579  0.5003426093765632  0.4168937888618447
  0.2493706346203090  0.4913363645059655  0.5553291410738036
  0.7499973759874711  0.4918898008631288  0.5553002201771893
  0.4980397212126602  0.0089047447737080  0.6008031593403388
  0.0021325444909983  0.0093838120167304  0.6008447506402248
  0.2526305085477469  0.4991874229755848  0.4633430006178028
  0.7502875969961753  0.4928538730483680  0.4635004830177184
  0.4998585209327276  0.9920250948489311  0.5090257480551751
  0.9998648698511177  0.9920486308068752  0.5090269016390457
  0.5000070289603581 -0.0001428238263899  0.4175906211800249
  0.0000004717693017 -0.0001386605861800  0.4175907822996692
  0.2485522875664098  0.0102894109162998  0.6227564053792569
  0.7478542772903711  0.0119506386381996  0.6212105199931282
  0.0022654002585284  0.5122171285235001  0.6218457087951593
  0.5024531256612035  0.5139306897499800  0.6215703436193080
  0.9995514948683972  0.5086255933654706  0.5779747860079673
  0.4996637805506345  0.5065431642273274  0.5776406617517335
  0.2501228557760881  0.0002476601151031  0.5773806339977244
  0.7499479285729409  0.0001815604648968  0.5773357923852390
  0.2502663507973296  0.9983774978315894  0.5320708438133109
  0.7501956679074886  0.9985103201675742  0.5320776358778805
  0.9997843016311394  0.4993077776981840  0.5320315419943089
  0.4997693515830994  0.4991521562668153  0.5320329199560885
  0.9992567198296262  0.5058800157483762  0.4863991236071064
  0.4991893417119138  0.5057764790502565  0.4864155895587586
  0.2499811569506698 -0.0000478407977764  0.4867021949548009
  0.7500104294774661  0.9996070173689665  0.4867010793103396
  0.2500395780891942  0.9994397287329461  0.4413468093674484
  0.7501646653024920  0.9989372834313295  0.4413412441775783
  0.9999394827551611  0.4995763347278644  0.4413487104851377
  0.5000283737686345  0.4995680912095559  0.4413433157067434
  0.9981816357429104  0.5104627797698620  0.3953951913827631
  0.4981814127601409  0.5104780105591304  0.3953918342923874
  0.2518023443981193  0.0107481567722698  0.3953403089051160
  0.7517985005564518  0.0107333217551639  0.3953410013683408
  0.1653441787609645 -0.0000612889930489  0.6466312638947892
  0.0000076540927031  0.4998804733023972  0.6004411471206921
  0.4999498419293451  0.4922355795463119  0.6008629975541598
  0.9953108500382818  0.4998688816426803  0.5531815025937487
  0.5046985292745746  0.4999912837462612  0.5531788562783301
  0.1309281525620254  0.7875547774697770  0.6224145819182861
  0.6308596149443298  0.7874052192442248  0.6228999663696603
  0.3810970249850097  0.7124154563958724  0.6229030723826929
  0.8810230863149308  0.7125313432927900  0.6229067445067691
  0.3691462381134581  0.2125006701306093  0.6228881157382101
  0.8692539514063193  0.2081059129916545  0.6227541729740450
  0.1187995282226401  0.2875965267828670  0.6229005766348452
  0.6190622788788687  0.2872837711949049  0.6229057082800951
  0.2499983990687504 -0.0000988152549569  0.5542784056501557
  0.7500021505289861  0.9999625167059627  0.5542658014587238
  0.2500074544125024 -0.0000315240274236  0.5996036955528252
  0.7500040501635147 -0.0000928844353214  0.5995976496797847
  0.3772558824143422  0.2799166414185358  0.5780721212069917
  0.8772415687097047  0.2797667664726604  0.5780818709130898
  0.1262658338776055  0.2247792205931148  0.5781153580951488
  0.6262590324990748  0.2247804477966598  0.5781218175849663
  0.1228509109082389  0.7199103886991668  0.5779827762400059
  0.6227663309083006  0.7203493533056368  0.5781033516824895
  0.3737665515102992  0.7750889441924002  0.5781176578493981
  0.8737564548268709  0.7751190631515351  0.5781189028262905
  0.9953187223451261  0.4999485232700420  0.5078646889096498
  0.4953176935945590  0.4999465766307393  0.5078640953583902
  0.0000003649080231  0.4999400404345984  0.4644901578143414
  0.5000019331022610  0.4999387441699980  0.4644900875758600
  0.1380435329824390  0.7748300785592822  0.5327969387966598
  0.6380524858847376  0.7748541962690955  0.5327952569274914
  0.3880442827731104  0.7249501982937752  0.5327923869697849
  0.8880441332486797  0.7249919859145557  0.5327881117415921
  0.3619526496863480  0.2250285742386303  0.5327960295854455
  0.8619344701178038  0.2249986578826317  0.5327929791802264
  0.1119584456711184  0.2749495991918295  0.5327909429580726
  0.6119617121070520  0.2748978101267933  0.5327866871845817
  0.2500110427768957  0.9875152501888045  0.4635272562547769
  0.7500071005438371  0.9875199669895951  0.4635278382391385
  0.2499965743546039  0.9875675968998545  0.5088458263566964
  0.7499967466759887  0.9875670788185353  0.5088461720240447
  0.3928046019004531  0.2624566899374913  0.4869558496814527
  0.8928027696772877  0.2624552096503634  0.4869558139503532
  0.1428680959496855  0.2373847350566614  0.4864758644483805
  0.6428674016150893  0.2373828300791657  0.4864757742203795
  0.1072205749798383  0.7375430299302921  0.4869581485250670
  0.6072204585760760  0.7375408754681865  0.4869581612447246
  0.3571847448801495  0.7624955802400311  0.4864754369272737
  0.8571831256615167  0.7624954106552723  0.4864755036602908
  0.0000024184210005  0.4999529188196890  0.4191649625746441
  0.5000019791489132  0.4999540972584212  0.4191649806701988
  0.1380164457428315  0.7749264592754247  0.4406260321947258
  0.6380127942915085  0.7749209147634948  0.4406259898996383
  0.3857806684342013  0.7249607279854113  0.4406358010363498
  0.8857824949462132  0.7249584164083457  0.4406356029227265
  0.3619700890431944  0.2249734212040263  0.4406308191351309
  0.8619681793613677  0.2249669308101537  0.4406309254753077
  0.1142495127604653  0.2749224790029581  0.4406387590462473
  0.6142504458662278  0.2749167325929390  0.4406389959530747
  0.2499936410583423  0.9999500976319982  0.4167670304962413
  0.7499933846786010  0.9999476281866193  0.4167667810551250
  0.3881825166524467  0.2751095213224355  0.3937639724914081
  0.8881831707096967  0.2751111831960383  0.3937640121876185
  0.1380848615221610  0.2247944810713260  0.3937536945448340
  0.6380851418387561  0.2247937574751324  0.3937537399524248
  0.1118279868883457  0.7249169300250536  0.3937620983415887
  0.6118281415884975  0.7249173129039971  0.3937620689667863
  0.3619165328773428  0.7752092552208556  0.3937547879517155
  0.8619161224324314  0.7752091843679180  0.3937547880749673
  0.2500840634687972  0.0124089634033262  0.6432244936464937
 
  0.00000000E+00  0.00000000E+00  0.00000000E+00
  0.00000000E+00  0.00000000E+00  0.00000000E+00
  0.00000000E+00  0.00000000E+00  0.00000000E+00
  0.00000000E+00  0.00000000E+00  0.00000000E+00
  0.00000000E+00  0.00000000E+00  0.00000000E+00
  0.00000000E+00  0.00000000E+00  0.00000000E+00
  0.00000000E+00  0.00000000E+00  0.00000000E+00
  0.00000000E+00  0.00000000E+00  0.00000000E+00
  0.00000000E+00  0.00000000E+00  0.00000000E+00
  0.00000000E+00  0.00000000E+00  0.00000000E+00
  0.00000000E+00  0.00000000E+00  0.00000000E+00
  0.00000000E+00  0.00000000E+00  0.00000000E+00
  0.00000000E+00  0.00000000E+00  0.00000000E+00
  0.00000000E+00  0.00000000E+00  0.00000000E+00
  0.00000000E+00  0.00000000E+00  0.00000000E+00
  0.00000000E+00  0.00000000E+00  0.00000000E+00
  0.00000000E+00  0.00000000E+00  0.00000000E+00
  0.00000000E+00  0.00000000E+00  0.00000000E+00
  0.00000000E+00  0.00000000E+00  0.00000000E+00
  0.00000000E+00  0.00000000E+00  0.00000000E+00
  0.00000000E+00  0.00000000E+00  0.00000000E+00
  0.00000000E+00  0.00000000E+00  0.00000000E+00
  0.00000000E+00  0.00000000E+00  0.00000000E+00
  0.00000000E+00  0.00000000E+00  0.00000000E+00
  0.00000000E+00  0.00000000E+00  0.00000000E+00
  0.00000000E+00  0.00000000E+00  0.00000000E+00
  0.00000000E+00  0.00000000E+00  0.00000000E+00
  0.00000000E+00  0.00000000E+00  0.00000000E+00
  0.00000000E+00  0.00000000E+00  0.00000000E+00
  0.00000000E+00  0.00000000E+00  0.00000000E+00
  0.00000000E+00  0.00000000E+00  0.00000000E+00
  0.00000000E+00  0.00000000E+00  0.00000000E+00
  0.00000000E+00  0.00000000E+00  0.00000000E+00
  0.00000000E+00  0.00000000E+00  0.00000000E+00
  0.00000000E+00  0.00000000E+00  0.00000000E+00
  0.00000000E+00  0.00000000E+00  0.00000000E+00
  0.00000000E+00  0.00000000E+00  0.00000000E+00
  0.00000000E+00  0.00000000E+00  0.00000000E+00
  0.00000000E+00  0.00000000E+00  0.00000000E+00
  0.00000000E+00  0.00000000E+00  0.00000000E+00
  0.00000000E+00  0.00000000E+00  0.00000000E+00
  0.00000000E+00  0.00000000E+00  0.00000000E+00
  0.00000000E+00  0.00000000E+00  0.00000000E+00
  0.00000000E+00  0.00000000E+00  0.00000000E+00
  0.00000000E+00  0.00000000E+00  0.00000000E+00
  0.00000000E+00  0.00000000E+00  0.00000000E+00
  0.00000000E+00  0.00000000E+00  0.00000000E+00
  0.00000000E+00  0.00000000E+00  0.00000000E+00
  0.00000000E+00  0.00000000E+00  0.00000000E+00
  0.00000000E+00  0.00000000E+00  0.00000000E+00
  0.00000000E+00  0.00000000E+00  0.00000000E+00
  0.00000000E+00  0.00000000E+00  0.00000000E+00
  0.00000000E+00  0.00000000E+00  0.00000000E+00
  0.00000000E+00  0.00000000E+00  0.00000000E+00
  0.00000000E+00  0.00000000E+00  0.00000000E+00
  0.00000000E+00  0.00000000E+00  0.00000000E+00
  0.00000000E+00  0.00000000E+00  0.00000000E+00
  0.00000000E+00  0.00000000E+00  0.00000000E+00
  0.00000000E+00  0.00000000E+00  0.00000000E+00
  0.00000000E+00  0.00000000E+00  0.00000000E+00
  0.00000000E+00  0.00000000E+00  0.00000000E+00
  0.00000000E+00  0.00000000E+00  0.00000000E+00
  0.00000000E+00  0.00000000E+00  0.00000000E+00
  0.00000000E+00  0.00000000E+00  0.00000000E+00
  0.00000000E+00  0.00000000E+00  0.00000000E+00
  0.00000000E+00  0.00000000E+00  0.00000000E+00
  0.00000000E+00  0.00000000E+00  0.00000000E+00
  0.00000000E+00  0.00000000E+00  0.00000000E+00
  0.00000000E+00  0.00000000E+00  0.00000000E+00
  0.00000000E+00  0.00000000E+00  0.00000000E+00
  0.00000000E+00  0.00000000E+00  0.00000000E+00
  0.00000000E+00  0.00000000E+00  0.00000000E+00
  0.00000000E+00  0.00000000E+00  0.00000000E+00
  0.00000000E+00  0.00000000E+00  0.00000000E+00
  0.00000000E+00  0.00000000E+00  0.00000000E+00
  0.00000000E+00  0.00000000E+00  0.00000000E+00
  0.00000000E+00  0.00000000E+00  0.00000000E+00
  0.00000000E+00  0.00000000E+00  0.00000000E+00
  0.00000000E+00  0.00000000E+00  0.00000000E+00
  0.00000000E+00  0.00000000E+00  0.00000000E+00
  0.00000000E+00  0.00000000E+00  0.00000000E+00
  0.00000000E+00  0.00000000E+00  0.00000000E+00
  0.00000000E+00  0.00000000E+00  0.00000000E+00
  0.00000000E+00  0.00000000E+00  0.00000000E+00
  0.00000000E+00  0.00000000E+00  0.00000000E+00
  0.00000000E+00  0.00000000E+00  0.00000000E+00
  0.00000000E+00  0.00000000E+00  0.00000000E+00
  0.00000000E+00  0.00000000E+00  0.00000000E+00
  0.00000000E+00  0.00000000E+00  0.00000000E+00
  0.00000000E+00  0.00000000E+00  0.00000000E+00
  0.00000000E+00  0.00000000E+00  0.00000000E+00
  0.00000000E+00  0.00000000E+00  0.00000000E+00
  0.00000000E+00  0.00000000E+00  0.00000000E+00
  0.00000000E+00  0.00000000E+00  0.00000000E+00
  0.00000000E+00  0.00000000E+00  0.00000000E+00
  0.00000000E+00  0.00000000E+00  0.00000000E+00
  0.00000000E+00  0.00000000E+00  0.00000000E+00
  0.00000000E+00  0.00000000E+00  0.00000000E+00
  0.00000000E+00  0.00000000E+00  0.00000000E+00
  0.00000000E+00  0.00000000E+00  0.00000000E+00
  0.00000000E+00  0.00000000E+00  0.00000000E+00
  0.00000000E+00  0.00000000E+00  0.00000000E+00
  0.00000000E+00  0.00000000E+00  0.00000000E+00
  0.00000000E+00  0.00000000E+00  0.00000000E+00
  0.00000000E+00  0.00000000E+00  0.00000000E+00
  0.00000000E+00  0.00000000E+00  0.00000000E+00
  0.00000000E+00  0.00000000E+00  0.00000000E+00
  0.00000000E+00  0.00000000E+00  0.00000000E+00
  0.00000000E+00  0.00000000E+00  0.00000000E+00
  0.00000000E+00  0.00000000E+00  0.00000000E+00
  0.00000000E+00  0.00000000E+00  0.00000000E+00
  0.00000000E+00  0.00000000E+00  0.00000000E+00
  0.00000000E+00  0.00000000E+00  0.00000000E+00
  0.00000000E+00  0.00000000E+00  0.00000000E+00
