H1 Ir32 O68                             
   1.00000000000000     
     6.3790139999999997    0.0000000000000000    0.0000000000000000
     0.0000000000000000   12.8550290000000000    0.0000000000000000
     0.0000000000000000    0.0000000000000000   38.5650860000000009
   H    Ir   O 
     1    32    68
Direct
 -0.0000000072356842  0.6998880860530042  0.6832964345454894
  0.2500009486545355  0.1249798306279741  0.3735045119463858
  0.2499703275669696  0.6249831453042235  0.3735030356310706
  0.7499990473203000  0.1249798308835541  0.3735045128842688
  0.7500296685838562  0.6249831453528911  0.3735030365201605
 -0.0000000022923808  0.3749578908239996  0.3761912813235136
 -0.0000000020835136  0.8749631128789634  0.3761903018707557
  0.4999999922893386  0.3749421344169802  0.3761976394367005
  0.4999999918288821  0.8749677623560499  0.3761955169519159
  0.2500099715807922  0.3748622748917112  0.4579472739969091
  0.2500015443225844  0.8749130374390898  0.4579471561368912
  0.7499900230970452  0.3748622746517435  0.4579472741644218
  0.7499984512493196  0.8749130396795326  0.4579471564138021
 -0.0000000071870851  0.1249410827455742  0.4579128254323295
 -0.0000000071000400  0.6249558536419456  0.4579119730184117
  0.5000000019451063  0.1249334925690799  0.4579136883973579
  0.5000000010976556  0.6249154540146131  0.4579139371090329
  0.2499964670047525  0.1249350543338891  0.5412260460566158
  0.2499985852192685  0.6250139622590214  0.5412454243511282
  0.7500035241756160  0.1249350534135163  0.5412260451628731
  0.7500014038867638  0.6250139618491679  0.5412454242408060
  0.0000000018369666  0.3749850295960190  0.5419336556603633
  0.0000000210675698  0.8748982670597232  0.5419247736416731
  0.4999999990082750  0.3748572589661521  0.5419249456978126
  0.5000000036801175  0.8749887913318641  0.5419234560174999
  0.2500168797367231  0.3753675287942106  0.6262947952446398
  0.2506006418396685  0.8749102554628412  0.6261387566765839
  0.7499831051700043  0.3753675225520942  0.6262947915625268
  0.7493993275847435  0.8749102448973557  0.6261387377442549
  0.0000000149656364  0.1249462612493259  0.6262466568167953
  0.0000000026431380  0.6260472447251084  0.6252208516662893
  0.5000000136495425  0.1250027019302412  0.6262431306555430
  0.5000000020708325  0.6244664735802816  0.6261594899266906
  0.0000000489778505  0.1249989078480750  0.3423430951760599
  0.0000000501827918  0.6249988813827257  0.3423426459637836
  0.4999999306916585  0.1249989671730665  0.3423430246560484
  0.4999999315825407  0.6249988108815164  0.3423432086675296
  0.2499992398002408  0.2771378143240857  0.3749503701329470
  0.2499995310938977  0.7771378978216837  0.3749504352661674
  0.7500007412982488  0.2771378187633804  0.3749503698078995
  0.7500004500446349  0.7771379022734084  0.3749504349376231
  0.0000000349128161  0.1249988563558107  0.4075650431700322
  0.0000000373504946  0.6249988024942988  0.4075651467052949
  0.4999999550404778  0.1249986510190050  0.4075648424103138
  0.4999999522048277  0.6249987435885338  0.4075661581299885
  0.2500005158651737  0.4728570791352642  0.3749506845763562
  0.2499998267076456  0.9728570262337100  0.3749506285588364
  0.7499994663401066  0.4728570750069820  0.3749506842612911
  0.7500001559682687  0.9728570222518487  0.3749506282578142
  0.0000000116453850  0.3749995001631927  0.4257140928792965
  0.0000000132074336  0.8749987800364393  0.4257141334255805
  0.4999999704901124  0.3749997777689808  0.4257142545577797
  0.4999999684551988  0.8749987086444356  0.4257140408100624
  0.2499993463375086  0.0271412637957057  0.4583102350375197
  0.2499969411321152  0.5271399131518552  0.4583103474290941
  0.7500006363785521  0.0271412647644089  0.4583102349955945
  0.7500030414269416  0.5271399141819102  0.4583103473668222
  0.0000000024996814  0.3749980355285143  0.4909410369206494
  0.0000000060933986  0.8749981329356384  0.4909405524558939
  0.4999999825259191  0.3749994352339234  0.4909416443371239
  0.4999999783830859  0.8749970123441487  0.4909419909488538
  0.2499997235144007  0.2228466894199432  0.4583103950134356
  0.2499972710273522  0.7228482090584435  0.4583104507293506
  0.7500002599531478  0.2228466885220687  0.4583103949757139
  0.7500027127471335  0.7228482083073170  0.4583104506520432
  0.0000000179345886  0.1249981409431739  0.5090114670271710
 -0.0000000241588176  0.6249998024416706  0.5090118457763279
  0.4999999652558899  0.1249981864168801  0.5090116270007398
  0.5000000055455434  0.6249994535265828  0.5090136103932735
  0.2499980695065612  0.2771312526280183  0.5416481106375776
  0.2500015241762533  0.7771365533619039  0.5416477790847760
  0.7500019136414255  0.2771312555403213  0.5416481104710011
  0.7499984601815827  0.7771365507389940  0.5416477791061378
  0.0000000421571430  0.1249983465830462  0.5742583153723171
 -0.0000000090105786  0.6249814674598599  0.5742133971161091
  0.4999999440584776  0.1249985407017194  0.5742580842153130
  0.5000000170740155  0.6249975661060323  0.5742547218372306
  0.2500032464164526  0.4728575138572583  0.5416477613316008
  0.2499948107962153  0.9728594881036094  0.5416481964976174
  0.7499967367713166  0.4728575161068752  0.5416477613575527
  0.7500051746096754  0.9728594858816478  0.5416481963967527
 -0.0000000297784304  0.3750005098397541  0.5923841729685089
 -0.0000000503754108  0.8749990441388683  0.5923820451006182
  0.5000000108049680  0.3749977152334978  0.5923826659756117
  0.4999999674985712  0.8749996574871318  0.5923794224184190
  0.2500000911821926  0.0278652346059915  0.6238477350518298
  0.2499558087849369  0.5278796646291100  0.6238553827745734
  0.7500000265013588  0.0278652558194828  0.6238477455419993
  0.7500443682539973  0.5278796415078085  0.6238553854493554
  0.0000001653641608  0.3750000657082381  0.6576038413864085
 -0.0000000645411470  0.8749634170195194  0.6576103438626935
  0.4999998173366817  0.3749995397359231  0.6576051323813401
  0.4999999764898228  0.8749981588283816  0.6576032388444882
  0.2499975374627378  0.2221355309633174  0.6238477205195648
  0.2499811708840866  0.7221364926645213  0.6238511601415423
  0.7500026541987699  0.2221354988201628  0.6238477184083343
  0.7500190528024774  0.7221364974798217  0.6238511604851251
 -0.0000000057149391  0.1249990339719854  0.6722316746811982
  0.4999999914921775  0.1249983033594040  0.6722317592841081
  0.4999999932185061  0.6250026884214210  0.6722309712420498
 -0.0000000478776039  0.6283620786259868  0.6747444197464325
 
  0.00000000E+00  0.00000000E+00  0.00000000E+00
  0.00000000E+00  0.00000000E+00  0.00000000E+00
  0.00000000E+00  0.00000000E+00  0.00000000E+00
  0.00000000E+00  0.00000000E+00  0.00000000E+00
  0.00000000E+00  0.00000000E+00  0.00000000E+00
  0.00000000E+00  0.00000000E+00  0.00000000E+00
  0.00000000E+00  0.00000000E+00  0.00000000E+00
  0.00000000E+00  0.00000000E+00  0.00000000E+00
  0.00000000E+00  0.00000000E+00  0.00000000E+00
  0.00000000E+00  0.00000000E+00  0.00000000E+00
  0.00000000E+00  0.00000000E+00  0.00000000E+00
  0.00000000E+00  0.00000000E+00  0.00000000E+00
  0.00000000E+00  0.00000000E+00  0.00000000E+00
  0.00000000E+00  0.00000000E+00  0.00000000E+00
  0.00000000E+00  0.00000000E+00  0.00000000E+00
  0.00000000E+00  0.00000000E+00  0.00000000E+00
  0.00000000E+00  0.00000000E+00  0.00000000E+00
  0.00000000E+00  0.00000000E+00  0.00000000E+00
  0.00000000E+00  0.00000000E+00  0.00000000E+00
  0.00000000E+00  0.00000000E+00  0.00000000E+00
  0.00000000E+00  0.00000000E+00  0.00000000E+00
  0.00000000E+00  0.00000000E+00  0.00000000E+00
  0.00000000E+00  0.00000000E+00  0.00000000E+00
  0.00000000E+00  0.00000000E+00  0.00000000E+00
  0.00000000E+00  0.00000000E+00  0.00000000E+00
  0.00000000E+00  0.00000000E+00  0.00000000E+00
  0.00000000E+00  0.00000000E+00  0.00000000E+00
  0.00000000E+00  0.00000000E+00  0.00000000E+00
  0.00000000E+00  0.00000000E+00  0.00000000E+00
  0.00000000E+00  0.00000000E+00  0.00000000E+00
  0.00000000E+00  0.00000000E+00  0.00000000E+00
  0.00000000E+00  0.00000000E+00  0.00000000E+00
  0.00000000E+00  0.00000000E+00  0.00000000E+00
  0.00000000E+00  0.00000000E+00  0.00000000E+00
  0.00000000E+00  0.00000000E+00  0.00000000E+00
  0.00000000E+00  0.00000000E+00  0.00000000E+00
  0.00000000E+00  0.00000000E+00  0.00000000E+00
  0.00000000E+00  0.00000000E+00  0.00000000E+00
  0.00000000E+00  0.00000000E+00  0.00000000E+00
  0.00000000E+00  0.00000000E+00  0.00000000E+00
  0.00000000E+00  0.00000000E+00  0.00000000E+00
  0.00000000E+00  0.00000000E+00  0.00000000E+00
  0.00000000E+00  0.00000000E+00  0.00000000E+00
  0.00000000E+00  0.00000000E+00  0.00000000E+00
  0.00000000E+00  0.00000000E+00  0.00000000E+00
  0.00000000E+00  0.00000000E+00  0.00000000E+00
  0.00000000E+00  0.00000000E+00  0.00000000E+00
  0.00000000E+00  0.00000000E+00  0.00000000E+00
  0.00000000E+00  0.00000000E+00  0.00000000E+00
  0.00000000E+00  0.00000000E+00  0.00000000E+00
  0.00000000E+00  0.00000000E+00  0.00000000E+00
  0.00000000E+00  0.00000000E+00  0.00000000E+00
  0.00000000E+00  0.00000000E+00  0.00000000E+00
  0.00000000E+00  0.00000000E+00  0.00000000E+00
  0.00000000E+00  0.00000000E+00  0.00000000E+00
  0.00000000E+00  0.00000000E+00  0.00000000E+00
  0.00000000E+00  0.00000000E+00  0.00000000E+00
  0.00000000E+00  0.00000000E+00  0.00000000E+00
  0.00000000E+00  0.00000000E+00  0.00000000E+00
  0.00000000E+00  0.00000000E+00  0.00000000E+00
  0.00000000E+00  0.00000000E+00  0.00000000E+00
  0.00000000E+00  0.00000000E+00  0.00000000E+00
  0.00000000E+00  0.00000000E+00  0.00000000E+00
  0.00000000E+00  0.00000000E+00  0.00000000E+00
  0.00000000E+00  0.00000000E+00  0.00000000E+00
  0.00000000E+00  0.00000000E+00  0.00000000E+00
  0.00000000E+00  0.00000000E+00  0.00000000E+00
  0.00000000E+00  0.00000000E+00  0.00000000E+00
  0.00000000E+00  0.00000000E+00  0.00000000E+00
  0.00000000E+00  0.00000000E+00  0.00000000E+00
  0.00000000E+00  0.00000000E+00  0.00000000E+00
  0.00000000E+00  0.00000000E+00  0.00000000E+00
  0.00000000E+00  0.00000000E+00  0.00000000E+00
  0.00000000E+00  0.00000000E+00  0.00000000E+00
  0.00000000E+00  0.00000000E+00  0.00000000E+00
  0.00000000E+00  0.00000000E+00  0.00000000E+00
  0.00000000E+00  0.00000000E+00  0.00000000E+00
  0.00000000E+00  0.00000000E+00  0.00000000E+00
  0.00000000E+00  0.00000000E+00  0.00000000E+00
  0.00000000E+00  0.00000000E+00  0.00000000E+00
  0.00000000E+00  0.00000000E+00  0.00000000E+00
  0.00000000E+00  0.00000000E+00  0.00000000E+00
  0.00000000E+00  0.00000000E+00  0.00000000E+00
  0.00000000E+00  0.00000000E+00  0.00000000E+00
  0.00000000E+00  0.00000000E+00  0.00000000E+00
  0.00000000E+00  0.00000000E+00  0.00000000E+00
  0.00000000E+00  0.00000000E+00  0.00000000E+00
  0.00000000E+00  0.00000000E+00  0.00000000E+00
  0.00000000E+00  0.00000000E+00  0.00000000E+00
  0.00000000E+00  0.00000000E+00  0.00000000E+00
  0.00000000E+00  0.00000000E+00  0.00000000E+00
  0.00000000E+00  0.00000000E+00  0.00000000E+00
  0.00000000E+00  0.00000000E+00  0.00000000E+00
  0.00000000E+00  0.00000000E+00  0.00000000E+00
  0.00000000E+00  0.00000000E+00  0.00000000E+00
  0.00000000E+00  0.00000000E+00  0.00000000E+00
  0.00000000E+00  0.00000000E+00  0.00000000E+00
  0.00000000E+00  0.00000000E+00  0.00000000E+00
  0.00000000E+00  0.00000000E+00  0.00000000E+00
  0.00000000E+00  0.00000000E+00  0.00000000E+00
  0.00000000E+00  0.00000000E+00  0.00000000E+00
