Ir32 O64
1.0
9.089878 0.000000 0.000000
-0.000000 11.104567 -0.079300
0.000000 0.000000 31.330060
Ir O
32 64
direct
0.250000 0.333333 0.375000 Ir4+
0.250000 0.833333 0.375000 Ir4+
0.750000 0.333333 0.375000 Ir4+
0.750000 0.833333 0.375000 Ir4+
0.000000 0.083333 0.375000 Ir4+
0.000000 0.583333 0.375000 Ir4+
0.500000 0.083333 0.375000 Ir4+
0.500000 0.583333 0.375000 Ir4+
0.250000 0.000000 0.458333 Ir4+
0.250000 0.500000 0.458333 Ir4+
0.750000 0.000000 0.458333 Ir4+
0.750000 0.500000 0.458333 Ir4+
0.000000 0.250000 0.458333 Ir4+
0.000000 0.750000 0.458333 Ir4+
0.500000 0.250000 0.458333 Ir4+
0.500000 0.750000 0.458333 Ir4+
0.250000 0.166667 0.541667 Ir4+
0.250000 0.666667 0.541667 Ir4+
0.750000 0.166667 0.541667 Ir4+
0.750000 0.666667 0.541667 Ir4+
1.000000 0.416667 0.541667 Ir4+
0.000000 0.916667 0.541667 Ir4+
0.500000 0.416667 0.541667 Ir4+
0.500000 0.916667 0.541667 Ir4+
0.250000 0.333333 0.625000 Ir4+
0.250000 0.833333 0.625000 Ir4+
0.750000 0.333333 0.625000 Ir4+
0.750000 0.833333 0.625000 Ir4+
1.000000 0.083333 0.625000 Ir4+
1.000000 0.583333 0.625000 Ir4+
0.500000 0.083333 0.625000 Ir4+
0.500000 0.583333 0.625000 Ir4+
0.345823 0.186118 0.349304 O2-
0.345823 0.686118 0.349304 O2-
0.845823 0.186118 0.349304 O2-
0.845823 0.686118 0.349304 O2-
0.095823 0.230549 0.400696 O2-
0.095823 0.730549 0.400696 O2-
0.595823 0.230549 0.400696 O2-
0.595823 0.730549 0.400696 O2-
0.154177 0.480549 0.400696 O2-
0.154177 0.980549 0.400696 O2-
0.654177 0.480549 0.400696 O2-
0.654177 0.980549 0.400696 O2-
0.404177 0.436118 0.349304 O2-
0.404177 0.936118 0.349304 O2-
0.904177 0.436118 0.349304 O2-
0.904177 0.936118 0.349304 O2-
0.345823 0.352785 0.432637 O2-
0.345823 0.852785 0.432637 O2-
0.845823 0.352785 0.432637 O2-
0.845823 0.852785 0.432637 O2-
0.095823 0.397215 0.484030 O2-
0.095823 0.897215 0.484030 O2-
0.595823 0.397215 0.484030 O2-
0.595823 0.897215 0.484030 O2-
0.154177 0.147215 0.484030 O2-
0.154177 0.647215 0.484030 O2-
0.654177 0.147215 0.484030 O2-
0.654177 0.647215 0.484030 O2-
0.404177 0.102785 0.432637 O2-
0.404177 0.602785 0.432637 O2-
0.904177 0.102785 0.432637 O2-
0.904177 0.602785 0.432637 O2-
0.345823 0.019451 0.515970 O2-
0.345823 0.519451 0.515971 O2-
0.845823 0.019451 0.515970 O2-
0.845823 0.519451 0.515970 O2-
0.095823 0.063882 0.567363 O2-
0.095823 0.563882 0.567363 O2-
0.595823 0.063882 0.567363 O2-
0.595823 0.563882 0.567363 O2-
0.154177 0.313882 0.567363 O2-
0.154177 0.813882 0.567363 O2-
0.654177 0.313882 0.567363 O2-
0.654177 0.813882 0.567363 O2-
0.404177 0.269451 0.515971 O2-
0.404177 0.769451 0.515971 O2-
0.904177 0.269451 0.515971 O2-
0.904177 0.769451 0.515971 O2-
0.345823 0.186118 0.599304 O2-
0.345823 0.686118 0.599304 O2-
0.845823 0.186118 0.599304 O2-
0.845823 0.686118 0.599304 O2-
0.095823 0.230549 0.650696 O2-
0.095823 0.730549 0.650696 O2-
0.595823 0.230549 0.650696 O2-
0.595823 0.730549 0.650696 O2-
0.154177 0.480549 0.650696 O2-
0.154177 0.980549 0.650696 O2-
0.654177 0.480549 0.650696 O2-
0.654177 0.980549 0.650696 O2-
0.404177 0.436118 0.599304 O2-
0.404177 0.936118 0.599304 O2-
0.904177 0.436118 0.599304 O2-
0.904177 0.936118 0.599304 O2-
