H1 Ir32 O72                             
   1.00000000000000     
     9.0898780000000006    0.0000000000000000    0.0000000000000000
     0.0000000000000000   11.1045669999999994   -0.0793000000000000
     0.0000000000000000    0.0000000000000000   31.3300599999999996
   H    Ir   O 
     1    32    72
Direct
  0.3354557172925589  0.9328638798324473  0.6937675107964837
  0.2632506508871746  0.3287757054932216  0.3750843509145335
  0.2633678206366650  0.8288190059607101  0.3751052526642615
  0.7632995402125249  0.3288884294488264  0.3751078323493939
  0.7632941702448739  0.8288810290892190  0.3751072914667147
  0.9882066383336370  0.0789996528270737  0.3758135864739711
  0.9881803014027677  0.5790125519935522  0.3758019967855956
  0.4882439721443915  0.0789988554058673  0.3758131635468286
  0.4886255542273744  0.5785870586321663  0.3754554602889729
  0.2483021457476562  0.0020991399717406  0.4574987768444366
  0.2481017369676122  0.5023054388471438  0.4572541906819717
  0.7482214307972451  0.0020245694718705  0.4575044196470356
  0.7481407232977413  0.5020336760809458  0.4575396396869904
  0.0018081755654719  0.2529398491220899  0.4577778319588868
  0.0018346897033176  0.7529176666145926  0.4577805718172250
  0.5018052110061899  0.2529534314390075  0.4577841327402389
  0.5018653323977076  0.7528822494416973  0.4577220874827004
  0.2510485950993561  0.1669608586466520  0.5411237149185144
  0.2513533473449346  0.6667648038758874  0.5413204654202861
  0.7510062154435905  0.1669998996013309  0.5411211982552366
  0.7510147235233718  0.6669985575532248  0.5411064798336059
  0.0014313915405678  0.4166331144459742  0.5422552128587192
  0.0013964084120358  0.9166563685054147  0.5422578520120350
  0.5010012201201788  0.4167797757162617  0.5422551598693692
  0.5011997521389338  0.9165872400129392  0.5423131295060053
  0.2479935195460364  0.3341071967077710  0.6276781566588963
  0.2433163329698388  0.8373058939119009  0.6269934235006221
  0.7479909220563874  0.3342787568223906  0.6276968051548930
  0.7483203146534668  0.8343647955284527  0.6275985196391908
  0.0053854605608784  0.0852437954929795  0.6270117585406044
  0.0056139093778454  0.5850559023236961  0.6270615859191170
  0.5058717042820713  0.0850692724105700  0.6269655077746229
  0.5054347187068065  0.5852287125627650  0.6270402882340752
  0.3466808876840894  0.1881257570543834  0.3511035580870296
  0.3466222181765266  0.6881288396678467  0.3510859754029356
  0.8466813452233279  0.1881381685144643  0.3511037897967407
  0.8466762199749883  0.6881393187421267  0.3511034126403693
  0.0956408037252161  0.2318745912678099  0.3993414074139415
  0.0956436467713287  0.7318761323257845  0.3993392887583693
  0.5956437657867688  0.2318766805981798  0.3993396459166989
  0.5956554346496771  0.7318698473150557  0.3993336902759150
  0.1529956114502141  0.4817587367416664  0.3993180025257609
  0.1530621091475050  0.9817668258586836  0.3993295192011205
  0.6530629717201359  0.4817543670641852  0.3993236539890620
  0.6530565923130608  0.9817685444241636  0.3993298933800504
  0.4028146667448593  0.4369663290996365  0.3505097928555702
  0.4033865027785228  0.9382096223381070  0.3510424813700588
  0.9033984895488156  0.4382075470187282  0.3510404766797098
  0.9033877698419818  0.9382105058540708  0.3510427167952759
  0.3426843597389737  0.3531882497522051  0.4339964670339602
  0.3427046361833690  0.8531898652940981  0.4339990170787889
  0.8426958398237758  0.3531885239917545  0.4339994884679247
  0.8427009198054255  0.8531892658520038  0.4339991993112277
  0.0958374918171010  0.4005386256234254  0.4845227711039167
  0.0958336446490909  0.9005335117337051  0.4845237049261087
  0.5958151168707884  0.4005344587006035  0.4845296703763454
  0.5958132638808645  0.9005286486843507  0.4845303529520403
  0.1531670035040330  0.1490443515701484  0.4840130697146259
  0.1531473479793826  0.6490600438687413  0.4840119418372339
  0.6531577177170446  0.1490415113980466  0.4840119188515924
  0.6531474397496237  0.6490400328020322  0.4840109503751150
  0.4045994217938798  0.1017192265867714  0.4340006058305488
  0.4042259714654082  0.6020701580526683  0.4334371170713405
  0.9045973339283900  0.1017174575735509  0.4340010790906361
  0.9045945238173638  0.6017178708435685  0.4340010533411177
  0.3468139620132335  0.0180385425812208  0.5159788290989021
  0.3459545434853532  0.5183836645307635  0.5155454590681305
  0.8468327905963872  0.0180215811799792  0.5159833506965250
  0.8468199610718862  0.5180266462598535  0.5159780110526486
  0.0960206520244375  0.0659037750711527  0.5666977692120039
  0.0960139507462357  0.5658937378404116  0.5666980628781567
  0.5960016778170368  0.0659252125746386  0.5666989874988676
  0.5959863827447169  0.5659329446117167  0.5666958578629903
  0.1572555956093492  0.3136321301692230  0.5660527664293754
  0.1572684481321721  0.8136408542282637  0.5660588846565409
  0.6570705017305062  0.3136419934573797  0.5660523750048227
  0.6572685273144679  0.8136348470905862  0.5660509119816968
  0.4045872142990043  0.2679718872098377  0.5159800095498431
  0.4045934638001704  0.7679583611025383  0.5159829125190442
  0.9045902903240084  0.2679668044128635  0.5159804095770925
  0.9045952740976099  0.7679680346767732  0.5159791039668900
  0.3449297452822782  0.1868657914830881  0.6001964795934217
  0.3448423040296593  0.6870157594539383  0.6002540961708104
  0.8448996500655503  0.1869128047692450  0.6001843956066480
  0.8449357056251536  0.6868975924180374  0.6001789916450073
  0.0960661798061191  0.2322941141690221  0.6492384040599771
  0.0973045785929523  0.7325091040637758  0.6487889314369004
  0.5960832029836048  0.2322956867603148  0.6492189469561107
  0.5972870556872800  0.7323648361432854  0.6487576199660444
  0.1501797501854003  0.4832847014569274  0.6477534341939946
  0.1502079308683442  0.9832940466226251  0.6477774585417473
  0.6501710489254462  0.4832846681802702  0.6477556176492352
  0.6501715580944437  0.9832860122125765  0.6477574637152779
  0.4023595297326909  0.4367315600924410  0.6001417339720170
  0.4023928492968279  0.9366651184836325  0.6002496467528039
  0.9023737589597458  0.4367354491046058  0.6001436503037819
  0.9023725293870430  0.9367232780087531  0.6001347353952964
  0.3433120712110002  0.3490134581901236  0.6784581061819818
  0.8433440084721282  0.3490159062465901  0.6784579503671415
  0.8433697065723139  0.8490105318459121  0.6784557204416571
  0.9068635056614417  0.0934945879165385  0.6761285937077819
  0.9068636610768989  0.5934980012620167  0.6761207580858776
  0.4068207418590724  0.0935709569428444  0.6761623277757048
  0.4068844225090723  0.5934698895679437  0.6761146828543450
  0.3456938544062378  0.8510143776053193  0.6819964868797388
 
  0.00000000E+00  0.00000000E+00  0.00000000E+00
  0.00000000E+00  0.00000000E+00  0.00000000E+00
  0.00000000E+00  0.00000000E+00  0.00000000E+00
  0.00000000E+00  0.00000000E+00  0.00000000E+00
  0.00000000E+00  0.00000000E+00  0.00000000E+00
  0.00000000E+00  0.00000000E+00  0.00000000E+00
  0.00000000E+00  0.00000000E+00  0.00000000E+00
  0.00000000E+00  0.00000000E+00  0.00000000E+00
  0.00000000E+00  0.00000000E+00  0.00000000E+00
  0.00000000E+00  0.00000000E+00  0.00000000E+00
  0.00000000E+00  0.00000000E+00  0.00000000E+00
  0.00000000E+00  0.00000000E+00  0.00000000E+00
  0.00000000E+00  0.00000000E+00  0.00000000E+00
  0.00000000E+00  0.00000000E+00  0.00000000E+00
  0.00000000E+00  0.00000000E+00  0.00000000E+00
  0.00000000E+00  0.00000000E+00  0.00000000E+00
  0.00000000E+00  0.00000000E+00  0.00000000E+00
  0.00000000E+00  0.00000000E+00  0.00000000E+00
  0.00000000E+00  0.00000000E+00  0.00000000E+00
  0.00000000E+00  0.00000000E+00  0.00000000E+00
  0.00000000E+00  0.00000000E+00  0.00000000E+00
  0.00000000E+00  0.00000000E+00  0.00000000E+00
  0.00000000E+00  0.00000000E+00  0.00000000E+00
  0.00000000E+00  0.00000000E+00  0.00000000E+00
  0.00000000E+00  0.00000000E+00  0.00000000E+00
  0.00000000E+00  0.00000000E+00  0.00000000E+00
  0.00000000E+00  0.00000000E+00  0.00000000E+00
  0.00000000E+00  0.00000000E+00  0.00000000E+00
  0.00000000E+00  0.00000000E+00  0.00000000E+00
  0.00000000E+00  0.00000000E+00  0.00000000E+00
  0.00000000E+00  0.00000000E+00  0.00000000E+00
  0.00000000E+00  0.00000000E+00  0.00000000E+00
  0.00000000E+00  0.00000000E+00  0.00000000E+00
  0.00000000E+00  0.00000000E+00  0.00000000E+00
  0.00000000E+00  0.00000000E+00  0.00000000E+00
  0.00000000E+00  0.00000000E+00  0.00000000E+00
  0.00000000E+00  0.00000000E+00  0.00000000E+00
  0.00000000E+00  0.00000000E+00  0.00000000E+00
  0.00000000E+00  0.00000000E+00  0.00000000E+00
  0.00000000E+00  0.00000000E+00  0.00000000E+00
  0.00000000E+00  0.00000000E+00  0.00000000E+00
  0.00000000E+00  0.00000000E+00  0.00000000E+00
  0.00000000E+00  0.00000000E+00  0.00000000E+00
  0.00000000E+00  0.00000000E+00  0.00000000E+00
  0.00000000E+00  0.00000000E+00  0.00000000E+00
  0.00000000E+00  0.00000000E+00  0.00000000E+00
  0.00000000E+00  0.00000000E+00  0.00000000E+00
  0.00000000E+00  0.00000000E+00  0.00000000E+00
  0.00000000E+00  0.00000000E+00  0.00000000E+00
  0.00000000E+00  0.00000000E+00  0.00000000E+00
  0.00000000E+00  0.00000000E+00  0.00000000E+00
  0.00000000E+00  0.00000000E+00  0.00000000E+00
  0.00000000E+00  0.00000000E+00  0.00000000E+00
  0.00000000E+00  0.00000000E+00  0.00000000E+00
  0.00000000E+00  0.00000000E+00  0.00000000E+00
  0.00000000E+00  0.00000000E+00  0.00000000E+00
  0.00000000E+00  0.00000000E+00  0.00000000E+00
  0.00000000E+00  0.00000000E+00  0.00000000E+00
  0.00000000E+00  0.00000000E+00  0.00000000E+00
  0.00000000E+00  0.00000000E+00  0.00000000E+00
  0.00000000E+00  0.00000000E+00  0.00000000E+00
  0.00000000E+00  0.00000000E+00  0.00000000E+00
  0.00000000E+00  0.00000000E+00  0.00000000E+00
  0.00000000E+00  0.00000000E+00  0.00000000E+00
  0.00000000E+00  0.00000000E+00  0.00000000E+00
  0.00000000E+00  0.00000000E+00  0.00000000E+00
  0.00000000E+00  0.00000000E+00  0.00000000E+00
  0.00000000E+00  0.00000000E+00  0.00000000E+00
  0.00000000E+00  0.00000000E+00  0.00000000E+00
  0.00000000E+00  0.00000000E+00  0.00000000E+00
  0.00000000E+00  0.00000000E+00  0.00000000E+00
  0.00000000E+00  0.00000000E+00  0.00000000E+00
  0.00000000E+00  0.00000000E+00  0.00000000E+00
  0.00000000E+00  0.00000000E+00  0.00000000E+00
  0.00000000E+00  0.00000000E+00  0.00000000E+00
  0.00000000E+00  0.00000000E+00  0.00000000E+00
  0.00000000E+00  0.00000000E+00  0.00000000E+00
  0.00000000E+00  0.00000000E+00  0.00000000E+00
  0.00000000E+00  0.00000000E+00  0.00000000E+00
  0.00000000E+00  0.00000000E+00  0.00000000E+00
  0.00000000E+00  0.00000000E+00  0.00000000E+00
  0.00000000E+00  0.00000000E+00  0.00000000E+00
  0.00000000E+00  0.00000000E+00  0.00000000E+00
  0.00000000E+00  0.00000000E+00  0.00000000E+00
  0.00000000E+00  0.00000000E+00  0.00000000E+00
  0.00000000E+00  0.00000000E+00  0.00000000E+00
  0.00000000E+00  0.00000000E+00  0.00000000E+00
  0.00000000E+00  0.00000000E+00  0.00000000E+00
  0.00000000E+00  0.00000000E+00  0.00000000E+00
  0.00000000E+00  0.00000000E+00  0.00000000E+00
  0.00000000E+00  0.00000000E+00  0.00000000E+00
  0.00000000E+00  0.00000000E+00  0.00000000E+00
  0.00000000E+00  0.00000000E+00  0.00000000E+00
  0.00000000E+00  0.00000000E+00  0.00000000E+00
  0.00000000E+00  0.00000000E+00  0.00000000E+00
  0.00000000E+00  0.00000000E+00  0.00000000E+00
  0.00000000E+00  0.00000000E+00  0.00000000E+00
  0.00000000E+00  0.00000000E+00  0.00000000E+00
  0.00000000E+00  0.00000000E+00  0.00000000E+00
  0.00000000E+00  0.00000000E+00  0.00000000E+00
  0.00000000E+00  0.00000000E+00  0.00000000E+00
  0.00000000E+00  0.00000000E+00  0.00000000E+00
  0.00000000E+00  0.00000000E+00  0.00000000E+00
  0.00000000E+00  0.00000000E+00  0.00000000E+00
  0.00000000E+00  0.00000000E+00  0.00000000E+00
