H1 Pd64 O3
1.0
  11.0798020200000007    0.0000000000000000    0.0000000000000007
  -0.0000000000000007   11.0798020200000007    0.0000000000000007
   0.0000000000000000    0.0000000000000000   39.1730157000000005
H Pd O
1 64 3
Selective dynamics
direct
   0.5800357557843565    0.7083105456299864    0.6238332778722364 T T T H
   0.9999515599999999    0.2498390100000000    0.5251112900000000 T T T Pd
   0.9999553600000001    0.5001827200000000    0.5251089900000000 T T T Pd
   0.0013425500000000    0.7512512200000001    0.5258032100000000 T T T Pd
   0.0013833500000000    0.9987756800000001    0.5258114900000000 T T T Pd
   0.2500097200000000    0.2497480300000000    0.5252119300000000 T T T Pd
   0.2500105800000000    0.5002694700000000    0.5252092800000000 T T T Pd
   0.2509256100000000    0.7521690900000001    0.5260428500000000 T T T Pd
   0.2509296400000000    0.9978474499999999    0.5260457500000000 T T T Pd
   0.4999953400000000    0.2497462900000000    0.5252149300000000 T T T Pd
   0.5000079600000000    0.5002652800000000    0.5252086100000000 T T T Pd
   0.4990361099999999    0.7521524600000000    0.5260410400000000 T T T Pd
   0.4990155400000000    0.9978751700000000    0.5260444200000000 T T T Pd
   0.7500808900000000    0.2498323900000000    0.5251079000000000 T T T Pd
   0.7500848400000000    0.5001934600000000    0.5251028800000000 T T T Pd
   0.7487997900000000    0.7512944000000000    0.5258183600000000 T T T Pd
   0.7487934100000001    0.9987402900000000    0.5258184200000000 T T T Pd
   0.1239729700000000    0.1270760700000000    0.5748145700000000 T T T Pd
   0.1242455600000000    0.3750345100000000    0.5747300600000000 T T T Pd
   0.1239602500000000    0.6229147300000000    0.5748199800000000 T T T Pd
   0.1239406000000000    0.8749667800000001    0.5792433299999999 T T T Pd
   0.3749443000000000    0.1270915500000000    0.5747671200000000 T T T Pd
   0.3750303799999999    0.3750389300000000    0.5747188100000000 T T T Pd
   0.3750487000000001    0.6228850700000000    0.5747591800000000 T T T Pd
   0.3733899199999999    0.8748989400000000    0.5886907900000000 T T T Pd
   0.6260635200000000    0.1271251300000000    0.5748063600000000 T T T Pd
   0.6257994200000000    0.3750536500000000    0.5747280500000000 T T T Pd
   0.6260990200000000    0.6229432499999999    0.5748038100000000 T T T Pd
   0.6262659499999997    0.8751715799999999    0.5789745700000000 T T T Pd
   0.8750593000000000    0.1267976000000000    0.5747760200000001 T T T Pd
   0.8750185499999998    0.3750783100000000    0.5747258100000000 T T T Pd
   0.8750551500000000    0.6233165000000001    0.5747706200000000 T T T Pd
   0.8756469500000000    0.8751664299999999    0.5752853000000000 T T T Pd
   0.2500000000000000    0.0000000000000000    0.4249999999999999 F F F Pd
   0.2500000000000000    0.2500000000000000    0.4249999999999999 F F F Pd
   0.2499999999999999    0.5000000000000000    0.4249999999999999 F F F Pd
   0.2500000000000000    0.7500000000000000    0.4249999999999999 F F F Pd
   0.5000000000000000    0.0000000000000000    0.4249999999999999 F F F Pd
   0.5000000000000000    0.2500000000000000    0.4249999999999999 F F F Pd
   0.5000000000000000    0.5000000000000000    0.4249999999999999 F F F Pd
   0.4999999999999999    0.7500000000000000    0.4249999999999999 F F F Pd
   0.7500000000000000    0.0000000000000000    0.4249999999999999 F F F Pd
   0.7500000000000000    0.2500000000000000    0.4249999999999999 F F F Pd
   0.7500000000000000    0.5000000000000000    0.4249999999999999 F F F Pd
   0.7500000000000000    0.7500000000000000    0.4249999999999999 F F F Pd
   0.0000000000000000    0.0000000000000000    0.4249999999999999 F F F Pd
   0.0000000000000000    0.2500000000000000    0.4249999999999999 F F F Pd
   0.0000000000000000    0.5000000000000000    0.4249999999999999 F F F Pd
   0.0000000000000000    0.7500000000000000    0.4249999999999999 F F F Pd
   0.1250000000000000    0.1250000000000000    0.4749999999999999 F F F Pd
   0.1250000000000000    0.3750000000000000    0.4749999999999999 F F F Pd
   0.1250000000000000    0.6250000000000000    0.4749999999999999 F F F Pd
   0.1250000000000000    0.8750000000000000    0.4749999999999999 F F F Pd
   0.3750000000000000    0.1250000000000000    0.4749999999999999 F F F Pd
   0.3750000000000000    0.3750000000000000    0.4749999999999999 F F F Pd
   0.3750000000000001    0.6250000000000000    0.4749999999999999 F F F Pd
   0.3749999999999999    0.8750000000000000    0.4749999999999999 F F F Pd
   0.6250000000000000    0.1250000000000000    0.4749999999999999 F F F Pd
   0.6250000000000000    0.3750000000000000    0.4749999999999999 F F F Pd
   0.6250000000000000    0.6250000000000000    0.4749999999999999 F F F Pd
   0.6249999999999998    0.8750000000000000    0.4749999999999999 F F F Pd
   0.8750000000000000    0.1250000000000000    0.4749999999999999 F F F Pd
   0.8750000000000000    0.3750000000000000    0.4749999999999999 F F F Pd
   0.8750000000000000    0.6250000000000000    0.4749999999999999 F F F Pd
   0.8750000000000000    0.8750000000000000    0.4749999999999998 F F F Pd
   0.2313458300000000    0.8730256399999999    0.6177575100000000 T T T O
   0.5178572999999997    0.8750002099999998    0.6173294000000000 T T T O
   0.5542297910673083    0.7786988502758845    0.6376495103049107 T T T O
