Ir32 O64                                
   1.00000000000000     
     6.3790139999999997    0.0000000000000000    0.0000000000000000
     0.0000000000000000   12.8550290000000000    0.0000000000000000
     0.0000000000000000    0.0000000000000000   38.5650860000000009
   Ir   O 
    32    64
Direct
  0.2500000019378255  0.1249994330320312  0.3736820915038285
  0.2499999973598656  0.6250005675658837  0.3736825780797016
  0.7499999980748574  0.1249994331325228  0.3736820916521202
  0.7500000025586447  0.6250005675477169  0.3736825780840402
  0.0000000000044033  0.3749998247646480  0.3766321962137265
 -0.0000000003687548  0.8750001753019534  0.3766325866450141
  0.5000000000888901  0.3749998239917200  0.3766321966500765
  0.5000000001571421  0.8750001761587944  0.3766325855688953
  0.2500000005762550  0.3749996774873621  0.4582199226256984
  0.2500000009710319  0.8750003244053144  0.4582198154174685
  0.7499999990093379  0.3749996779113833  0.4582199227498741
  0.7499999999115294  0.8750003241945034  0.4582198154961101
  0.0000000009330410  0.1249997383281210  0.4579912990110809
  0.0000000002165380  0.6250002617472192  0.4579910407558273
  0.4999999992101840  0.1249997382520670  0.4579912993282318
  0.4999999997210363  0.6250002618168135  0.4579910401656617
  0.2500000007022138  0.1250000062706000  0.5417804143044913
  0.2499999996450490  0.6249999905254980  0.5417802130258204
  0.7500000001634766  0.1250000055897397  0.5417804142187175
  0.7500000001912345  0.6249999910257783  0.5417802129662782
  0.0000000001662966  0.3749995369893582  0.5420085891023048
  0.0000000004684562  0.8750004617412029  0.5420087080802730
  0.5000000000352005  0.3749995368775809  0.5420085886214142
  0.4999999992085333  0.8750004618811755  0.5420087080109732
  0.2499999993912734  0.3749977917548546  0.6263181680524597
  0.2500000009544562  0.8750022102494323  0.6263177932334407
  0.7500000006449918  0.3749977916760954  0.6263181679558055
  0.7499999990378384  0.8750022102203697  0.6263177930582556
 -0.0000000001981344  0.1250000670128723  0.6233676903361456
 -0.0000000006090186  0.6249999314407272  0.6233679708520192
  0.5000000000621300  0.1250000664671247  0.6233676894186431
  0.5000000002078706  0.6249999319582786  0.6233679714626518
  0.0000000015415458  0.1249999831530048  0.3423630662365698
  0.0000000014878036  0.6250000168721100  0.3423630476068971
  0.4999999990766060  0.1249999830508624  0.3423630662245355
  0.4999999992423582  0.6250000169631078  0.3423630476315257
  0.2500000119122310  0.2771452490609913  0.3749728234150256
  0.2499999798749019  0.7771453838122760  0.3749728504995961
  0.7499999896590052  0.2771452491893434  0.3749728234019514
  0.7500000218740673  0.7771453837839268  0.3749728505097480
 -0.0000000066224374  0.1249999691484861  0.4075966910013628
  0.0000000078083033  0.6250000311246647  0.4075967483985231
  0.5000000065014651  0.1249999689701277  0.4075966909878654
  0.4999999928075394  0.6250000312799933  0.4075967486333263
  0.2500000009440391  0.4728546821828316  0.3749728305694039
  0.2499999893413915  0.9728546850867238  0.3749728429406847
  0.7499999967232154  0.4728546822277139  0.3749728305705922
  0.7500000080672748  0.9728546849583793  0.3749728429319809
  0.0000000264839672  0.3749999883664868  0.4257593726780024
  0.0000000125467979  0.8750000120029978  0.4257593852540285
  0.4999999724773216  0.3749999883388796  0.4257593727683233
  0.4999999887032681  0.8750000118650694  0.4257593850601362
  0.2499999962083696  0.0271468586222015  0.4583287532996098
  0.2499999863962943  0.5271469589466141  0.4583287476442862
  0.7500000021498034  0.0271468584655941  0.4583287533125077
  0.7500000123060773  0.5271469586619700  0.4583287476735847
  0.0000000180163905  0.3749999713078669  0.4909666831637992
  0.0000000075806058  0.8750000289309161  0.4909666925679133
  0.4999999821365986  0.3749999713367489  0.4909666831985623
  0.4999999927727389  0.8750000289369116  0.4909666925236328
  0.2499999976885715  0.2228530122336323  0.4583287578173058
  0.2499999873367365  0.7228531709564064  0.4583287426768798
  0.7500000027698005  0.2228530124757851  0.4583287578290762
  0.7500000140230230  0.7228531711471223  0.4583287427033947
  0.0000000129621636  0.1249999756977123  0.5090333294428734
  0.0000000070640138  0.6250000244456728  0.5090333241488809
  0.4999999868280988  0.1249999758152129  0.5090333293622947
  0.4999999927676769  0.6250000243504925  0.5090333240816198
  0.2499999913200463  0.2771468429852835  0.5416712265598441
  0.2500000061797621  0.7771468810098988  0.5416712179813125
  0.7500000066200440  0.2771468427233994  0.5416712265324375
  0.7499999937793925  0.7771468808650133  0.5416712179672668
  0.0000000199358426  0.1250000013318638  0.5742406920169592
  0.0000000108623172  0.6249999987694450  0.5742407077451931
  0.4999999802844927  0.1250000014644421  0.5742406919505936
  0.4999999886996158  0.6249999987054622  0.5742407077581184
  0.2499999916127948  0.4728531390837779  0.5416712267955733
  0.2500000090257131  0.9728531359765449  0.5416712173431083
  0.7500000086833022  0.4728531392005091  0.5416712267448648
  0.7499999929858745  0.9728531362473702  0.5416712173439958
 -0.0000000018373678  0.3749999383224936  0.5924031347217441
  0.0000000004896690  0.8750000617675511  0.5924031291716320
  0.5000000014484031  0.3749999383453267  0.5924031346262847
  0.4999999998686405  0.8750000618168154  0.5924031292451767
  0.2500000059601032  0.0271453385931949  0.6250270442371769
  0.2499999991558031  0.5271451768268023  0.6250270487244587
  0.7499999961455786  0.0271453386433799  0.6250270442462376
  0.7500000033605592  0.5271451769388509  0.6250270487186155
 -0.0000000023992168  0.3749999525662099  0.6576367621591342
  0.0000000010056824  0.8750000470627946  0.6576367344461693
  0.5000000028832468  0.3749999525971822  0.6576367621544381
  0.4999999986211676  0.8750000470603047  0.6576367344448544
  0.2499999950247154  0.2228546811272523  0.6250270372908558
  0.2500000042260256  0.7228548039467365  0.6250270551852252
  0.7500000022303395  0.2228546810557266  0.6250270372880755
  0.7499999939361305  0.7228548038787885  0.6250270551873052
 
  0.00000000E+00  0.00000000E+00  0.00000000E+00
  0.00000000E+00  0.00000000E+00  0.00000000E+00
  0.00000000E+00  0.00000000E+00  0.00000000E+00
  0.00000000E+00  0.00000000E+00  0.00000000E+00
  0.00000000E+00  0.00000000E+00  0.00000000E+00
  0.00000000E+00  0.00000000E+00  0.00000000E+00
  0.00000000E+00  0.00000000E+00  0.00000000E+00
  0.00000000E+00  0.00000000E+00  0.00000000E+00
  0.00000000E+00  0.00000000E+00  0.00000000E+00
  0.00000000E+00  0.00000000E+00  0.00000000E+00
  0.00000000E+00  0.00000000E+00  0.00000000E+00
  0.00000000E+00  0.00000000E+00  0.00000000E+00
  0.00000000E+00  0.00000000E+00  0.00000000E+00
  0.00000000E+00  0.00000000E+00  0.00000000E+00
  0.00000000E+00  0.00000000E+00  0.00000000E+00
  0.00000000E+00  0.00000000E+00  0.00000000E+00
  0.00000000E+00  0.00000000E+00  0.00000000E+00
  0.00000000E+00  0.00000000E+00  0.00000000E+00
  0.00000000E+00  0.00000000E+00  0.00000000E+00
  0.00000000E+00  0.00000000E+00  0.00000000E+00
  0.00000000E+00  0.00000000E+00  0.00000000E+00
  0.00000000E+00  0.00000000E+00  0.00000000E+00
  0.00000000E+00  0.00000000E+00  0.00000000E+00
  0.00000000E+00  0.00000000E+00  0.00000000E+00
  0.00000000E+00  0.00000000E+00  0.00000000E+00
  0.00000000E+00  0.00000000E+00  0.00000000E+00
  0.00000000E+00  0.00000000E+00  0.00000000E+00
  0.00000000E+00  0.00000000E+00  0.00000000E+00
  0.00000000E+00  0.00000000E+00  0.00000000E+00
  0.00000000E+00  0.00000000E+00  0.00000000E+00
  0.00000000E+00  0.00000000E+00  0.00000000E+00
  0.00000000E+00  0.00000000E+00  0.00000000E+00
  0.00000000E+00  0.00000000E+00  0.00000000E+00
  0.00000000E+00  0.00000000E+00  0.00000000E+00
  0.00000000E+00  0.00000000E+00  0.00000000E+00
  0.00000000E+00  0.00000000E+00  0.00000000E+00
  0.00000000E+00  0.00000000E+00  0.00000000E+00
  0.00000000E+00  0.00000000E+00  0.00000000E+00
  0.00000000E+00  0.00000000E+00  0.00000000E+00
  0.00000000E+00  0.00000000E+00  0.00000000E+00
  0.00000000E+00  0.00000000E+00  0.00000000E+00
  0.00000000E+00  0.00000000E+00  0.00000000E+00
  0.00000000E+00  0.00000000E+00  0.00000000E+00
  0.00000000E+00  0.00000000E+00  0.00000000E+00
  0.00000000E+00  0.00000000E+00  0.00000000E+00
  0.00000000E+00  0.00000000E+00  0.00000000E+00
  0.00000000E+00  0.00000000E+00  0.00000000E+00
  0.00000000E+00  0.00000000E+00  0.00000000E+00
  0.00000000E+00  0.00000000E+00  0.00000000E+00
  0.00000000E+00  0.00000000E+00  0.00000000E+00
  0.00000000E+00  0.00000000E+00  0.00000000E+00
  0.00000000E+00  0.00000000E+00  0.00000000E+00
  0.00000000E+00  0.00000000E+00  0.00000000E+00
  0.00000000E+00  0.00000000E+00  0.00000000E+00
  0.00000000E+00  0.00000000E+00  0.00000000E+00
  0.00000000E+00  0.00000000E+00  0.00000000E+00
  0.00000000E+00  0.00000000E+00  0.00000000E+00
  0.00000000E+00  0.00000000E+00  0.00000000E+00
  0.00000000E+00  0.00000000E+00  0.00000000E+00
  0.00000000E+00  0.00000000E+00  0.00000000E+00
  0.00000000E+00  0.00000000E+00  0.00000000E+00
  0.00000000E+00  0.00000000E+00  0.00000000E+00
  0.00000000E+00  0.00000000E+00  0.00000000E+00
  0.00000000E+00  0.00000000E+00  0.00000000E+00
  0.00000000E+00  0.00000000E+00  0.00000000E+00
  0.00000000E+00  0.00000000E+00  0.00000000E+00
  0.00000000E+00  0.00000000E+00  0.00000000E+00
  0.00000000E+00  0.00000000E+00  0.00000000E+00
  0.00000000E+00  0.00000000E+00  0.00000000E+00
  0.00000000E+00  0.00000000E+00  0.00000000E+00
  0.00000000E+00  0.00000000E+00  0.00000000E+00
  0.00000000E+00  0.00000000E+00  0.00000000E+00
  0.00000000E+00  0.00000000E+00  0.00000000E+00
  0.00000000E+00  0.00000000E+00  0.00000000E+00
  0.00000000E+00  0.00000000E+00  0.00000000E+00
  0.00000000E+00  0.00000000E+00  0.00000000E+00
  0.00000000E+00  0.00000000E+00  0.00000000E+00
  0.00000000E+00  0.00000000E+00  0.00000000E+00
  0.00000000E+00  0.00000000E+00  0.00000000E+00
  0.00000000E+00  0.00000000E+00  0.00000000E+00
  0.00000000E+00  0.00000000E+00  0.00000000E+00
  0.00000000E+00  0.00000000E+00  0.00000000E+00
  0.00000000E+00  0.00000000E+00  0.00000000E+00
  0.00000000E+00  0.00000000E+00  0.00000000E+00
  0.00000000E+00  0.00000000E+00  0.00000000E+00
  0.00000000E+00  0.00000000E+00  0.00000000E+00
  0.00000000E+00  0.00000000E+00  0.00000000E+00
  0.00000000E+00  0.00000000E+00  0.00000000E+00
  0.00000000E+00  0.00000000E+00  0.00000000E+00
  0.00000000E+00  0.00000000E+00  0.00000000E+00
  0.00000000E+00  0.00000000E+00  0.00000000E+00
  0.00000000E+00  0.00000000E+00  0.00000000E+00
  0.00000000E+00  0.00000000E+00  0.00000000E+00
  0.00000000E+00  0.00000000E+00  0.00000000E+00
  0.00000000E+00  0.00000000E+00  0.00000000E+00
  0.00000000E+00  0.00000000E+00  0.00000000E+00
