H1 Ir32 O68
1.0
6.379014 0.000000 0.000000
0.000000 12.855029 0.000000
0.000000 0.000000 38.565086
H Ir O
1 32 68
direct
0.000000 0.702789 0.684374 H
0.250000 0.125001 0.373480 Ir
0.250000 0.625000 0.373481 Ir
0.750000 0.125001 0.373480 Ir
0.750000 0.625000 0.373481 Ir
0.000000 0.375000 0.376149 Ir
0.000000 0.875001 0.376151 Ir
0.500000 0.375000 0.376150 Ir
0.500000 0.875001 0.376149 Ir
0.250000 0.375000 0.457921 Ir
0.250000 0.875000 0.457921 Ir
0.750000 0.375000 0.457921 Ir
0.750000 0.875000 0.457921 Ir
0.000000 0.125000 0.457892 Ir
0.000000 0.625000 0.457893 Ir
0.500000 0.125000 0.457892 Ir
0.500000 0.625000 0.457893 Ir
0.250000 0.125000 0.541206 Ir
0.250000 0.625001 0.541206 Ir
0.750000 0.125000 0.541206 Ir
0.750000 0.625001 0.541206 Ir
0.000000 0.375000 0.541920 Ir
0.000000 0.875000 0.541920 Ir
0.500000 0.375000 0.541920 Ir
0.500000 0.875000 0.541920 Ir
0.250000 0.375000 0.626254 Ir
0.250000 0.875000 0.626255 Ir
0.750000 0.374999 0.626254 Ir
0.750000 0.875000 0.626255 Ir
0.000000 0.125001 0.626205 Ir
0.000000 0.624999 0.626205 Ir
0.500000 0.125001 0.626205 Ir
0.500000 0.624999 0.626205 Ir
-0.000000 0.125000 0.342340 O
0.000000 0.625000 0.342340 O
0.500000 0.125000 0.342340 O
0.500000 0.625000 0.342340 O
0.250000 0.277139 0.374946 O
0.250000 0.777139 0.374946 O
0.750000 0.277139 0.374946 O
0.750000 0.777139 0.374946 O
0.000000 0.125000 0.407559 O
-0.000000 0.625000 0.407559 O
0.500000 0.125000 0.407559 O
0.500000 0.625000 0.407559 O
0.250000 0.472861 0.374946 O
0.250000 0.972861 0.374946 O
0.750000 0.472861 0.374946 O
0.750000 0.972861 0.374946 O
-0.000000 0.375000 0.425708 O
-0.000000 0.875000 0.425709 O
0.500000 0.375000 0.425709 O
0.500000 0.875000 0.425708 O
0.250000 0.027145 0.458306 O
0.250000 0.527145 0.458306 O
0.750000 0.027145 0.458306 O
0.750000 0.527145 0.458306 O
0.000000 0.375000 0.490937 O
0.000000 0.875000 0.490937 O
0.500000 0.375000 0.490937 O
0.500000 0.875000 0.490937 O
0.250000 0.222855 0.458306 O
0.250000 0.722855 0.458306 O
0.750000 0.222855 0.458306 O
0.750000 0.722855 0.458306 O
-0.000000 0.125000 0.509008 O
0.000000 0.625000 0.509008 O
0.500000 0.125000 0.509008 O
0.500000 0.625000 0.509008 O
0.250000 0.277135 0.541644 O
0.250000 0.777135 0.541644 O
0.750000 0.277135 0.541644 O
0.750000 0.777135 0.541644 O
0.000000 0.125000 0.574253 O
-0.000000 0.625000 0.574253 O
0.500000 0.125000 0.574253 O
0.500000 0.625000 0.574253 O
0.250000 0.472865 0.541644 O
0.250000 0.972865 0.541644 O
0.750000 0.472865 0.541644 O
0.750000 0.972865 0.541644 O
-0.000000 0.375000 0.592379 O
-0.000000 0.875000 0.592379 O
0.500000 0.375000 0.592379 O
0.500000 0.875000 0.592379 O
0.250000 0.027876 0.623845 O
0.250000 0.527877 0.623844 O
0.750000 0.027877 0.623845 O
0.750000 0.527877 0.623844 O
0.000001 0.375000 0.657601 O
0.000000 0.875000 0.657601 O
0.499999 0.375000 0.657601 O
0.500000 0.875000 0.657601 O
0.250000 0.222123 0.623844 O
0.250000 0.722124 0.623845 O
0.750000 0.222124 0.623845 O
0.750000 0.722124 0.623845 O
-0.000000 0.125000 0.672226 O
0.500000 0.125000 0.672226 O
0.500000 0.625000 0.672226 O
0.000000 0.624998 0.673431 O
