Ba10 Sr10 Co24 H1 O69
1.0
11.105715 0.000000 0.000000
-0.004793 5.552855 0.000000
0.000000 0.000000 87.290226
Ba Sr Co H O
10 10 24 1 69
direct
0.999866 0.997868 0.555077 Ba
0.500280 0.997759 0.555068 Ba
0.250668 0.500282 0.601064 Ba
0.753014 0.499719 0.600877 Ba
0.000709 0.998154 0.463709 Ba
0.500695 0.998107 0.463708 Ba
0.249595 0.495270 0.509439 Ba
0.749586 0.495271 0.509444 Ba
0.250141 0.499629 0.416828 Ba
0.750132 0.499579 0.416829 Ba
0.249994 0.490905 0.555304 Sr
0.750170 0.491217 0.555292 Sr
0.500129 0.004129 0.600973 Sr
0.000200 0.005484 0.600973 Sr
0.252706 0.499028 0.463320 Sr
0.752218 0.497154 0.463370 Sr
0.499823 0.991634 0.508912 Sr
0.999836 0.991692 0.508916 Sr
0.500067 0.999228 0.417556 Sr
0.000076 0.999252 0.417556 Sr
0.248498 0.010790 0.621798 Co
0.747923 0.009857 0.621774 Co
0.001737 0.511295 0.621897 Co
0.501717 0.511255 0.621881 Co
0.999659 0.508420 0.578210 Co
0.499658 0.508371 0.578071 Co
0.250013 0.000394 0.577369 Co
0.749941 0.000396 0.577367 Co
0.250340 0.997539 0.532056 Co
0.750321 0.997774 0.532054 Co
0.999727 0.498952 0.532026 Co
0.499801 0.498826 0.532027 Co
0.999236 0.505734 0.486383 Co
0.499203 0.505600 0.486386 Co
0.249969 -0.000226 0.486689 Co
0.749971 0.999680 0.486690 Co
0.250348 0.998681 0.441318 Co
0.750472 0.998316 0.441308 Co
0.000181 0.499120 0.441327 Co
0.500265 0.499048 0.441324 Co
0.998243 0.510413 0.395352 Co
0.498244 0.510410 0.395352 Co
0.251770 0.010644 0.395313 Co
0.751770 0.010638 0.395312 Co
0.248420 -0.169298 0.647711 H
0.000002 0.499860 0.600435 O
0.500002 0.499852 0.600434 O
0.995307 0.499851 0.553180 O
0.504692 0.499977 0.553181 O
0.131008 0.792030 0.622747 O
0.631007 0.787624 0.622899 O
0.381068 0.712532 0.622904 O
0.881068 0.712496 0.622905 O
0.369009 0.212359 0.622899 O
0.869111 0.208041 0.622750 O
0.118921 0.287495 0.622903 O
0.618925 0.287466 0.622902 O
0.250001 0.999916 0.554276 O
0.750003 0.999912 0.554276 O
0.250009 0.999926 0.599564 O
0.749999 0.999897 0.599563 O
0.377192 0.280170 0.577980 O
0.877217 0.280108 0.577996 O
0.126273 0.224738 0.578114 O
0.626276 0.224720 0.578115 O
0.122849 0.719827 0.577983 O
0.622861 0.719854 0.577987 O
0.373746 0.775119 0.578115 O
0.873747 0.775128 0.578116 O
0.995318 0.499935 0.507864 O
0.495319 0.499935 0.507864 O
-0.000001 0.499904 0.464487 O
0.499999 0.499902 0.464487 O
0.138040 0.774795 0.532796 O
0.638052 0.774832 0.532793 O
0.388044 0.724929 0.532791 O
0.888040 0.724979 0.532787 O
0.361940 0.225008 0.532794 O
0.861930 0.224981 0.532792 O
0.111957 0.274939 0.532789 O
0.611960 0.274885 0.532785 O
0.250011 0.987505 0.463526 O
0.750010 0.987506 0.463526 O
0.249991 0.987562 0.508846 O
0.749991 0.987565 0.508846 O
0.392800 0.262436 0.486955 O
0.892801 0.262437 0.486955 O
0.142864 0.237372 0.486475 O
0.642863 0.237372 0.486475 O
0.107221 0.737536 0.486957 O
0.607221 0.737534 0.486957 O
0.357188 0.762483 0.486474 O
0.857188 0.762482 0.486474 O
0.000001 0.499907 0.419164 O
0.500003 0.499914 0.419164 O
0.138017 0.774903 0.440625 O
0.638017 0.774900 0.440625 O
0.385784 0.724939 0.440634 O
0.885783 0.724941 0.440634 O
0.361971 0.224959 0.440629 O
0.861971 0.224956 0.440629 O
0.114247 0.274912 0.440636 O
0.614248 0.274909 0.440636 O
0.249991 0.999904 0.416766 O
0.749991 0.999903 0.416766 O
0.388181 0.275090 0.393762 O
0.888181 0.275090 0.393762 O
0.138078 0.224787 0.393752 O
0.638078 0.224786 0.393752 O
0.111829 0.724911 0.393760 O
0.611831 0.724905 0.393760 O
0.361924 0.775190 0.393753 O
0.861924 0.775190 0.393753 O
0.248498 0.010790 0.642877 O
