H8 Ir32 O72                             
   1.00000000000000     
     9.0898780000000006    0.0000000000000000    0.0000000000000000
     0.0000000000000000   11.1045669999999994   -0.0793000000000000
     0.0000000000000000    0.0000000000000000   31.3300599999999996
   H    Ir   O 
     8    32    72
Direct
  0.4357830234114649  0.3252947708798510  0.6812473966368207
  0.4357996721910207  0.8252740648568219  0.6812395567589489
  0.9358076372945533  0.3252779573304800  0.6812455113877006
  0.9357815850238786  0.8252876712740441  0.6812440296365841
  0.0040552513266578  0.1194024484804478  0.7010873839913283
  0.0040459080857595  0.6194039139426397  0.7010894363134808
  0.5035830387385134  0.1211184781857212  0.7006399055444603
  0.5038381167634193  0.6212855424037900  0.7005133630376019
  0.2646431596613505  0.3280381474048818  0.3750761914234645
  0.2646481519743634  0.8280021646461713  0.3750753638721098
  0.7646484872467894  0.3279993716856915  0.3750732947734073
  0.7646412479894683  0.8280370068708399  0.3750747249339046
  0.9914085337848056  0.0777047942540851  0.3749592412550202
  0.9914194147799374  0.5776998052476943  0.3749608874203263
  0.4913949958651162  0.0777068006779194  0.3749581545372503
  0.4913991988813309  0.5777073601479378  0.3749589095322756
  0.2493902898741403  0.0018202055124671  0.4574133427900061
  0.2493652810686625  0.5020152527435868  0.4574533251417684
  0.7493816529513649  0.0018735457335678  0.4574208384719752
  0.7494173449727441  0.5016723459413670  0.4573715874593532
  0.0035263962427191  0.2514462728486134  0.4577068266900556
  0.0035324856590807  0.7514791350251411  0.4577129900613290
  0.5035136212939968  0.2514408373972123  0.4576972467199004
  0.5034771252362266  0.7514330308111169  0.4577099753776037
  0.2518257665568962  0.1663211773060825  0.5416150642847609
  0.2515665248183246  0.6667093232115903  0.5419626350486512
  0.7517963679020978  0.1664092456148511  0.5416832552740865
  0.7520422435393440  0.6658752837890635  0.5414453081348227
  0.0004614985617676  0.4144992091553196  0.5419105397799434
  0.0004278434469173  0.9146397831658554  0.5420034539308217
  0.5005788348647097  0.4144904588443174  0.5418037196691616
  0.5006706334593406  0.9144176391021059  0.5418390588471989
  0.2455884317023942  0.3367465111552565  0.6260650741069493
  0.2442890489145014  0.8376177200926685  0.6266860840650623
  0.7450117007199452  0.3370508326882172  0.6264195342427968
  0.7457171158949766  0.8365521405219821  0.6259247886944095
  0.0077739276832405  0.0884244935011628  0.6250525475539691
  0.0078934597576151  0.5881514101587184  0.6250661572519316
  0.5079229154944495  0.0881420850487047  0.6250654314939755
  0.5077962224064470  0.5882751598180521  0.6250281423810365
  0.3501495158477634  0.1886532703119921  0.3510285704842695
  0.3501506550932501  0.6886506161724157  0.3510280850684397
  0.8501502145074818  0.1886472730103008  0.3510273610310647
  0.8501498753751792  0.6886495776258386  0.3510280120887024
  0.0962537895258463  0.2316946874770502  0.3993386596461636
  0.0962512545412758  0.7316940256643978  0.3993387236718066
  0.5962524502906461  0.2316945578483535  0.3993379206498683
  0.5962496335226474  0.7316959084445760  0.3993396104278868
  0.1542353207695697  0.4813520873790719  0.3994438834179526
  0.1541960865180374  0.9813942163026244  0.3994340786670004
  0.6541938462522414  0.4813952847337696  0.3994318257186003
  0.6541881268281130  0.9814444571063512  0.3994223412540011
  0.4044423095993528  0.4347017358490128  0.3493747247190065
  0.4044422129792261  0.9347009459243457  0.3493747426265398
  0.9044441957372091  0.4346980424850764  0.3493746752754450
  0.9044437505349350  0.9346989671924109  0.3493746067037813
  0.3432605088665714  0.3531333635904338  0.4339944192677881
  0.3432695491081826  0.8531286250410830  0.4339940636301924
  0.8432739486059647  0.3531249287163248  0.4339936214031461
  0.8432640110658290  0.8531308929269088  0.4339944728043418
  0.0959342496771236  0.4004436856702729  0.4845053134401430
  0.0959345069154606  0.9004431895831334  0.4845080950120060
  0.5959404179558652  0.4004341136964675  0.4844991356650631
  0.5959304267551763  0.9004393960586402  0.4845000109997584
  0.1542020509743647  0.1488464515348493  0.4839071118982835
  0.1541989508140815  0.6489981903986187  0.4839379561787831
  0.6541993308535651  0.1488676686836116  0.4839112438056155
  0.6542029721379230  0.6488002361084027  0.4838955429512985
  0.4044805050737143  0.1019872089244130  0.4333496616699901
  0.4044825355462879  0.6019904604341505  0.4333514516587553
  0.9044808273998980  0.1019880507575251  0.4333501503035096
  0.9044808552814128  0.6019866694149730  0.4333491036607667
  0.3471000474207502  0.0178067703278602  0.5159768266915342
  0.3470731207397358  0.5178539059443208  0.5159730057573304
  0.8470937308779637  0.0178176082245716  0.5159711682396536
  0.8471353396589872  0.5177290132797254  0.5159724492374775
  0.0956371603567355  0.0652021396127619  0.5660057997120650
  0.0956177939653646  0.5651803506987219  0.5660145787021228
  0.5956567602408789  0.0651815564758720  0.5660067809615076
  0.5956609379739306  0.5651914945594576  0.5659995132138298
  0.1547650864999107  0.3140311916169519  0.5670940346270573
  0.1543049696633933  0.8151058614772430  0.5678250148433053
  0.6548262904680614  0.3141040505038836  0.5671310005158224
  0.6574699808703296  0.8135667251431934  0.5660455091867781
  0.4047781398972358  0.2677059869484655  0.5159919213870099
  0.4047178233994877  0.7677364134077980  0.5159992397276562
  0.9047704895907898  0.2677120767367802  0.5159947497452743
  0.9048069889260831  0.7676995891092846  0.5159910267457145
  0.3451491775284964  0.1866467129083019  0.6002871973612636
  0.3450811418585131  0.6868194262969999  0.6003423982035203
  0.8450536762316982  0.1868208695292619  0.6003099726153760
  0.8451564238182850  0.6866244571456505  0.6002789087760942
  0.0973543295448141  0.2325454318625019  0.6488064413492153
  0.0972384333360868  0.7325530832349249  0.6488290672928879
  0.5972853174565875  0.2325317107971952  0.6488165181986523
  0.5973525815035947  0.7325239765797609  0.6487975794313313
  0.1504627531248663  0.4848876677999852  0.6464772838001421
  0.1501818485588518  0.9861141748071902  0.6468753134851117
  0.6501586906777177  0.4853929402004971  0.6466010598438915
  0.6504580152830824  0.9848701145400225  0.6464720168643362
  0.4045840855958952  0.4346738750180845  0.5993193581565351
  0.4043448950003477  0.9352908622403449  0.5999930644758105
  0.9043562022990751  0.4353037802652857  0.5999960520193245
  0.9044016904334761  0.9353104194960016  0.5999860402848463
  0.3357991690157362  0.3574024917373741  0.6821460886098677
  0.3358008898602778  0.8574185237845485  0.6821949289468116
  0.8357980959726591  0.3574073698281635  0.6821805615657618
  0.8357875676370597  0.8573900946134514  0.6821457680204687
  0.9214538271078357  0.1000223181883753  0.6814710368503109
  0.9214637667517388  0.6000191276730368  0.6814697941179533
  0.4214220827921669  0.0999996002286170  0.6814531255163649
  0.4214256370670267  0.5999990546142009  0.6814523505938308
 
  0.00000000E+00  0.00000000E+00  0.00000000E+00
  0.00000000E+00  0.00000000E+00  0.00000000E+00
  0.00000000E+00  0.00000000E+00  0.00000000E+00
  0.00000000E+00  0.00000000E+00  0.00000000E+00
  0.00000000E+00  0.00000000E+00  0.00000000E+00
  0.00000000E+00  0.00000000E+00  0.00000000E+00
  0.00000000E+00  0.00000000E+00  0.00000000E+00
  0.00000000E+00  0.00000000E+00  0.00000000E+00
  0.00000000E+00  0.00000000E+00  0.00000000E+00
  0.00000000E+00  0.00000000E+00  0.00000000E+00
  0.00000000E+00  0.00000000E+00  0.00000000E+00
  0.00000000E+00  0.00000000E+00  0.00000000E+00
  0.00000000E+00  0.00000000E+00  0.00000000E+00
  0.00000000E+00  0.00000000E+00  0.00000000E+00
  0.00000000E+00  0.00000000E+00  0.00000000E+00
  0.00000000E+00  0.00000000E+00  0.00000000E+00
  0.00000000E+00  0.00000000E+00  0.00000000E+00
  0.00000000E+00  0.00000000E+00  0.00000000E+00
  0.00000000E+00  0.00000000E+00  0.00000000E+00
  0.00000000E+00  0.00000000E+00  0.00000000E+00
  0.00000000E+00  0.00000000E+00  0.00000000E+00
  0.00000000E+00  0.00000000E+00  0.00000000E+00
  0.00000000E+00  0.00000000E+00  0.00000000E+00
  0.00000000E+00  0.00000000E+00  0.00000000E+00
  0.00000000E+00  0.00000000E+00  0.00000000E+00
  0.00000000E+00  0.00000000E+00  0.00000000E+00
  0.00000000E+00  0.00000000E+00  0.00000000E+00
  0.00000000E+00  0.00000000E+00  0.00000000E+00
  0.00000000E+00  0.00000000E+00  0.00000000E+00
  0.00000000E+00  0.00000000E+00  0.00000000E+00
  0.00000000E+00  0.00000000E+00  0.00000000E+00
  0.00000000E+00  0.00000000E+00  0.00000000E+00
  0.00000000E+00  0.00000000E+00  0.00000000E+00
  0.00000000E+00  0.00000000E+00  0.00000000E+00
  0.00000000E+00  0.00000000E+00  0.00000000E+00
  0.00000000E+00  0.00000000E+00  0.00000000E+00
  0.00000000E+00  0.00000000E+00  0.00000000E+00
  0.00000000E+00  0.00000000E+00  0.00000000E+00
  0.00000000E+00  0.00000000E+00  0.00000000E+00
  0.00000000E+00  0.00000000E+00  0.00000000E+00
  0.00000000E+00  0.00000000E+00  0.00000000E+00
  0.00000000E+00  0.00000000E+00  0.00000000E+00
  0.00000000E+00  0.00000000E+00  0.00000000E+00
  0.00000000E+00  0.00000000E+00  0.00000000E+00
  0.00000000E+00  0.00000000E+00  0.00000000E+00
  0.00000000E+00  0.00000000E+00  0.00000000E+00
  0.00000000E+00  0.00000000E+00  0.00000000E+00
  0.00000000E+00  0.00000000E+00  0.00000000E+00
  0.00000000E+00  0.00000000E+00  0.00000000E+00
  0.00000000E+00  0.00000000E+00  0.00000000E+00
  0.00000000E+00  0.00000000E+00  0.00000000E+00
  0.00000000E+00  0.00000000E+00  0.00000000E+00
  0.00000000E+00  0.00000000E+00  0.00000000E+00
  0.00000000E+00  0.00000000E+00  0.00000000E+00
  0.00000000E+00  0.00000000E+00  0.00000000E+00
  0.00000000E+00  0.00000000E+00  0.00000000E+00
  0.00000000E+00  0.00000000E+00  0.00000000E+00
  0.00000000E+00  0.00000000E+00  0.00000000E+00
  0.00000000E+00  0.00000000E+00  0.00000000E+00
  0.00000000E+00  0.00000000E+00  0.00000000E+00
  0.00000000E+00  0.00000000E+00  0.00000000E+00
  0.00000000E+00  0.00000000E+00  0.00000000E+00
  0.00000000E+00  0.00000000E+00  0.00000000E+00
  0.00000000E+00  0.00000000E+00  0.00000000E+00
  0.00000000E+00  0.00000000E+00  0.00000000E+00
  0.00000000E+00  0.00000000E+00  0.00000000E+00
  0.00000000E+00  0.00000000E+00  0.00000000E+00
  0.00000000E+00  0.00000000E+00  0.00000000E+00
  0.00000000E+00  0.00000000E+00  0.00000000E+00
  0.00000000E+00  0.00000000E+00  0.00000000E+00
  0.00000000E+00  0.00000000E+00  0.00000000E+00
  0.00000000E+00  0.00000000E+00  0.00000000E+00
  0.00000000E+00  0.00000000E+00  0.00000000E+00
  0.00000000E+00  0.00000000E+00  0.00000000E+00
  0.00000000E+00  0.00000000E+00  0.00000000E+00
  0.00000000E+00  0.00000000E+00  0.00000000E+00
  0.00000000E+00  0.00000000E+00  0.00000000E+00
  0.00000000E+00  0.00000000E+00  0.00000000E+00
  0.00000000E+00  0.00000000E+00  0.00000000E+00
  0.00000000E+00  0.00000000E+00  0.00000000E+00
  0.00000000E+00  0.00000000E+00  0.00000000E+00
  0.00000000E+00  0.00000000E+00  0.00000000E+00
  0.00000000E+00  0.00000000E+00  0.00000000E+00
  0.00000000E+00  0.00000000E+00  0.00000000E+00
  0.00000000E+00  0.00000000E+00  0.00000000E+00
  0.00000000E+00  0.00000000E+00  0.00000000E+00
  0.00000000E+00  0.00000000E+00  0.00000000E+00
  0.00000000E+00  0.00000000E+00  0.00000000E+00
  0.00000000E+00  0.00000000E+00  0.00000000E+00
  0.00000000E+00  0.00000000E+00  0.00000000E+00
  0.00000000E+00  0.00000000E+00  0.00000000E+00
  0.00000000E+00  0.00000000E+00  0.00000000E+00
  0.00000000E+00  0.00000000E+00  0.00000000E+00
  0.00000000E+00  0.00000000E+00  0.00000000E+00
  0.00000000E+00  0.00000000E+00  0.00000000E+00
  0.00000000E+00  0.00000000E+00  0.00000000E+00
  0.00000000E+00  0.00000000E+00  0.00000000E+00
  0.00000000E+00  0.00000000E+00  0.00000000E+00
  0.00000000E+00  0.00000000E+00  0.00000000E+00
  0.00000000E+00  0.00000000E+00  0.00000000E+00
  0.00000000E+00  0.00000000E+00  0.00000000E+00
  0.00000000E+00  0.00000000E+00  0.00000000E+00
  0.00000000E+00  0.00000000E+00  0.00000000E+00
  0.00000000E+00  0.00000000E+00  0.00000000E+00
  0.00000000E+00  0.00000000E+00  0.00000000E+00
  0.00000000E+00  0.00000000E+00  0.00000000E+00
  0.00000000E+00  0.00000000E+00  0.00000000E+00
  0.00000000E+00  0.00000000E+00  0.00000000E+00
  0.00000000E+00  0.00000000E+00  0.00000000E+00
  0.00000000E+00  0.00000000E+00  0.00000000E+00
  0.00000000E+00  0.00000000E+00  0.00000000E+00
  0.00000000E+00  0.00000000E+00  0.00000000E+00
