H1 Ir32 O73                             
   1.00000000000000     
     9.0898780000000006    0.0000000000000000    0.0000000000000000
     0.0000000000000000   11.1045669999999994   -0.0793000000000000
     0.0000000000000000    0.0000000000000000   31.3300599999999996
   H    Ir   O 
     1    32    73
Direct
  0.2738043731583494  0.8233193116274866  0.7386705074062081
  0.2630491425033728  0.3287208850648814  0.3750542786146759
  0.2631610015921284  0.8288122522623576  0.3750765924077156
  0.7631198205743925  0.3288620683014267  0.3750762254232338
  0.7631187591350547  0.8288329689193867  0.3750730325890239
  0.9877966419265727  0.0791071122568670  0.3757022377364292
  0.9877767097557426  0.5791133720759107  0.3756935600934914
  0.4877883436569214  0.0791175587730577  0.3756995631229925
  0.4878824676214558  0.5787347385405541  0.3753509619794212
  0.2479133641440072  0.0019675724833392  0.4573736805971093
  0.2478250682884789  0.5021080515510952  0.4571430116627132
  0.7478937377767418  0.0020289795086565  0.4573353476804437
  0.7478636729346436  0.5019665426446429  0.4573863923158498
  0.0017014533711199  0.2529208637332172  0.4577457942413252
  0.0017224737398274  0.7529292059924484  0.4577432716569892
  0.5016853894526475  0.2529308252213557  0.4577537468731243
  0.5017431940293839  0.7528558806055385  0.4576828615063764
  0.2507725629506981  0.1669167867692010  0.5410091086168950
  0.2507164553238377  0.6667223310591006  0.5408247704347023
  0.7508626500074308  0.1669856203147091  0.5410161071972014
  0.7507695951676969  0.6669283703671012  0.5409936745713801
  0.0010949519547611  0.4166231050104363  0.5422416802762570
 -0.0001648782034702  0.9168431311165769  0.5423012314179668
  0.5008230445554078  0.4167560423234531  0.5422324443878028
  0.5011677914885064  0.9166485827597276  0.5422784910047383
  0.2479192042107036  0.3341298916712820  0.6275834707652574
  0.2440043499554360  0.8356707641926654  0.6253311424801268
  0.7480251087836902  0.3342514381065587  0.6275390109987946
  0.7483634154155372  0.8343233067684086  0.6274813008135421
  0.0059189025332740  0.0848979223354977  0.6270524235954406
  0.0055492571150863  0.5851395173603494  0.6270334779470317
  0.5056452825568278  0.0849478931249255  0.6269858082131234
  0.5053525151072548  0.5850134809317489  0.6269605988242225
  0.3464796852732911  0.1881243084958876  0.3510615460059542
  0.3464283144381233  0.6881381328046827  0.3510469852802792
  0.8464787655569278  0.1881389598772119  0.3510619166345589
  0.8464768104353004  0.6881394970697030  0.3510617502960914
  0.0956041603446278  0.2318612095168701  0.3993343902093904
  0.0956060230308644  0.7318636775792369  0.3993319691931175
  0.5956087787027624  0.2318642065278750  0.3993321276859715
  0.5956180418192010  0.7318582814535654  0.3993256181754214
  0.1529095952811112  0.4817629111459326  0.3993083215457131
  0.1529232322651015  0.9817665081638689  0.3993166148396521
  0.6529108630115558  0.4817604926133964  0.3993105115726091
  0.6529179914078213  0.9817706130647157  0.3993166387501516
  0.4024902987642633  0.4367315460732180  0.3503979983663591
  0.4032997078313480  0.9382117654857917  0.3510157229109439
  0.9033037920412450  0.4382126074239884  0.3510118092771560
  0.9032992025149406  0.9382137294687802  0.3510152518079815
  0.3425743854857106  0.3531673478490147  0.4339896028908275
  0.3426029457927874  0.8531764461501973  0.4339928205442093
  0.8425831413327551  0.3531691273022938  0.4339927016253531
  0.8425815283210396  0.8531709316817604  0.4339924791406712
  0.0958078076153482  0.4005147669514489  0.4845133545966759
  0.0957864591053923  0.9005114623778743  0.4845197318791299
  0.5957935017686586  0.4005134670019719  0.4845172120824612
  0.5957951809693920  0.9005059509368888  0.4845160178679677
  0.1530071757945359  0.1489837875723944  0.4839985556846301
  0.1529565846644909  0.6490052913319700  0.4839772835869295
  0.6529956433758644  0.1489882222550890  0.4839981500843792
  0.6529925359436686  0.6489800908134952  0.4839969889125129
  0.4045711953913783  0.1016941273521273  0.4339913320757618
  0.4041725217396997  0.6020319843217536  0.4334182565742691
  0.9045743900823227  0.1016969733319545  0.4339901164659634
  0.9045698304933613  0.6016943779524863  0.4339909643815231
  0.3467241454376513  0.0179902206144810  0.5159593177241242
  0.3458400237495455  0.5183262358380166  0.5155342540366694
  0.8466939893479229  0.0180049075045210  0.5159556097921079
  0.8467209675713701  0.5179756110455322  0.5159585098520616
  0.0959882792762893  0.0658689954967009  0.5666765859602926
  0.0959958570111234  0.5658601473921046  0.5666724347910376
  0.5959767762870902  0.0659161735917838  0.5666889210295489
  0.5959831915624181  0.5658760648369945  0.5666779099393464
  0.1570080053485030  0.3136211564802007  0.5660473340314608
  0.1567136959471906  0.8136504326320759  0.5660226091715933
  0.6569686804255034  0.3136250559268136  0.5660471383558993
  0.6570452546932763  0.8136243891993479  0.5660449008269279
  0.4045425492828490  0.2679601649736620  0.5159722342681666
  0.4045595499758798  0.7679540276370003  0.5159669540457936
  0.9045504237151629  0.2679615606223717  0.5159717303809478
  0.9045314868995107  0.7679559774689344  0.5159741717011438
  0.3449374418943606  0.1868144486659181  0.6001492865334048
  0.3434758422940681  0.6870041391081129  0.5994642419397331
  0.8449555984690482  0.1867899470029440  0.6001476067148426
  0.8449437106542460  0.6868112497477873  0.6001377235485423
  0.0960705403360516  0.2322693362728103  0.6492312251086665
  0.0973749761091731  0.7321917780329311  0.6487041738206124
  0.5960171078144441  0.2322624804904264  0.6492347885652023
  0.5970329685958097  0.7324203250701771  0.6487737856752561
  0.1501536252592074  0.4832773031524141  0.6477459675854064
  0.1542020214575660  0.9817870749846432  0.6469716514683126
  0.6501619835061355  0.4832829401248628  0.6477506956141897
  0.6501731079731894  0.9832833764284598  0.6477512289050417
  0.4023514710673233  0.4366978669065928  0.6001124018905662
  0.4024379920166403  0.9365655043791649  0.6001354016012855
  0.9024096056669846  0.4365980691517088  0.6000121077305529
  0.9023439297803960  0.9367164466251490  0.6001316805571344
  0.3432293593385360  0.3490100457362592  0.6784547818069304
  0.8431805257217779  0.3490298842629205  0.6784562421463156
  0.8432639120984777  0.8490047942391619  0.6784531261763564
  0.9068888092665177  0.0934476123604068  0.6761155550011803
  0.9068509232034833  0.5934842425371825  0.6761165573386467
  0.4068471368333112  0.0934699895923841  0.6761191071265488
  0.4068463220547127  0.5934990307612358  0.6761005337939087
  0.3450585056201129  0.8421864023994030  0.6813249825822548
  0.2249997932587459  0.8232814149849697  0.7105099824657525
 
  0.00000000E+00  0.00000000E+00  0.00000000E+00
  0.00000000E+00  0.00000000E+00  0.00000000E+00
  0.00000000E+00  0.00000000E+00  0.00000000E+00
  0.00000000E+00  0.00000000E+00  0.00000000E+00
  0.00000000E+00  0.00000000E+00  0.00000000E+00
  0.00000000E+00  0.00000000E+00  0.00000000E+00
  0.00000000E+00  0.00000000E+00  0.00000000E+00
  0.00000000E+00  0.00000000E+00  0.00000000E+00
  0.00000000E+00  0.00000000E+00  0.00000000E+00
  0.00000000E+00  0.00000000E+00  0.00000000E+00
  0.00000000E+00  0.00000000E+00  0.00000000E+00
  0.00000000E+00  0.00000000E+00  0.00000000E+00
  0.00000000E+00  0.00000000E+00  0.00000000E+00
  0.00000000E+00  0.00000000E+00  0.00000000E+00
  0.00000000E+00  0.00000000E+00  0.00000000E+00
  0.00000000E+00  0.00000000E+00  0.00000000E+00
  0.00000000E+00  0.00000000E+00  0.00000000E+00
  0.00000000E+00  0.00000000E+00  0.00000000E+00
  0.00000000E+00  0.00000000E+00  0.00000000E+00
  0.00000000E+00  0.00000000E+00  0.00000000E+00
  0.00000000E+00  0.00000000E+00  0.00000000E+00
  0.00000000E+00  0.00000000E+00  0.00000000E+00
  0.00000000E+00  0.00000000E+00  0.00000000E+00
  0.00000000E+00  0.00000000E+00  0.00000000E+00
  0.00000000E+00  0.00000000E+00  0.00000000E+00
  0.00000000E+00  0.00000000E+00  0.00000000E+00
  0.00000000E+00  0.00000000E+00  0.00000000E+00
  0.00000000E+00  0.00000000E+00  0.00000000E+00
  0.00000000E+00  0.00000000E+00  0.00000000E+00
  0.00000000E+00  0.00000000E+00  0.00000000E+00
  0.00000000E+00  0.00000000E+00  0.00000000E+00
  0.00000000E+00  0.00000000E+00  0.00000000E+00
  0.00000000E+00  0.00000000E+00  0.00000000E+00
  0.00000000E+00  0.00000000E+00  0.00000000E+00
  0.00000000E+00  0.00000000E+00  0.00000000E+00
  0.00000000E+00  0.00000000E+00  0.00000000E+00
  0.00000000E+00  0.00000000E+00  0.00000000E+00
  0.00000000E+00  0.00000000E+00  0.00000000E+00
  0.00000000E+00  0.00000000E+00  0.00000000E+00
  0.00000000E+00  0.00000000E+00  0.00000000E+00
  0.00000000E+00  0.00000000E+00  0.00000000E+00
  0.00000000E+00  0.00000000E+00  0.00000000E+00
  0.00000000E+00  0.00000000E+00  0.00000000E+00
  0.00000000E+00  0.00000000E+00  0.00000000E+00
  0.00000000E+00  0.00000000E+00  0.00000000E+00
  0.00000000E+00  0.00000000E+00  0.00000000E+00
  0.00000000E+00  0.00000000E+00  0.00000000E+00
  0.00000000E+00  0.00000000E+00  0.00000000E+00
  0.00000000E+00  0.00000000E+00  0.00000000E+00
  0.00000000E+00  0.00000000E+00  0.00000000E+00
  0.00000000E+00  0.00000000E+00  0.00000000E+00
  0.00000000E+00  0.00000000E+00  0.00000000E+00
  0.00000000E+00  0.00000000E+00  0.00000000E+00
  0.00000000E+00  0.00000000E+00  0.00000000E+00
  0.00000000E+00  0.00000000E+00  0.00000000E+00
  0.00000000E+00  0.00000000E+00  0.00000000E+00
  0.00000000E+00  0.00000000E+00  0.00000000E+00
  0.00000000E+00  0.00000000E+00  0.00000000E+00
  0.00000000E+00  0.00000000E+00  0.00000000E+00
  0.00000000E+00  0.00000000E+00  0.00000000E+00
  0.00000000E+00  0.00000000E+00  0.00000000E+00
  0.00000000E+00  0.00000000E+00  0.00000000E+00
  0.00000000E+00  0.00000000E+00  0.00000000E+00
  0.00000000E+00  0.00000000E+00  0.00000000E+00
  0.00000000E+00  0.00000000E+00  0.00000000E+00
  0.00000000E+00  0.00000000E+00  0.00000000E+00
  0.00000000E+00  0.00000000E+00  0.00000000E+00
  0.00000000E+00  0.00000000E+00  0.00000000E+00
  0.00000000E+00  0.00000000E+00  0.00000000E+00
  0.00000000E+00  0.00000000E+00  0.00000000E+00
  0.00000000E+00  0.00000000E+00  0.00000000E+00
  0.00000000E+00  0.00000000E+00  0.00000000E+00
  0.00000000E+00  0.00000000E+00  0.00000000E+00
  0.00000000E+00  0.00000000E+00  0.00000000E+00
  0.00000000E+00  0.00000000E+00  0.00000000E+00
  0.00000000E+00  0.00000000E+00  0.00000000E+00
  0.00000000E+00  0.00000000E+00  0.00000000E+00
  0.00000000E+00  0.00000000E+00  0.00000000E+00
  0.00000000E+00  0.00000000E+00  0.00000000E+00
  0.00000000E+00  0.00000000E+00  0.00000000E+00
  0.00000000E+00  0.00000000E+00  0.00000000E+00
  0.00000000E+00  0.00000000E+00  0.00000000E+00
  0.00000000E+00  0.00000000E+00  0.00000000E+00
  0.00000000E+00  0.00000000E+00  0.00000000E+00
  0.00000000E+00  0.00000000E+00  0.00000000E+00
  0.00000000E+00  0.00000000E+00  0.00000000E+00
  0.00000000E+00  0.00000000E+00  0.00000000E+00
  0.00000000E+00  0.00000000E+00  0.00000000E+00
  0.00000000E+00  0.00000000E+00  0.00000000E+00
  0.00000000E+00  0.00000000E+00  0.00000000E+00
  0.00000000E+00  0.00000000E+00  0.00000000E+00
  0.00000000E+00  0.00000000E+00  0.00000000E+00
  0.00000000E+00  0.00000000E+00  0.00000000E+00
  0.00000000E+00  0.00000000E+00  0.00000000E+00
  0.00000000E+00  0.00000000E+00  0.00000000E+00
  0.00000000E+00  0.00000000E+00  0.00000000E+00
  0.00000000E+00  0.00000000E+00  0.00000000E+00
  0.00000000E+00  0.00000000E+00  0.00000000E+00
  0.00000000E+00  0.00000000E+00  0.00000000E+00
  0.00000000E+00  0.00000000E+00  0.00000000E+00
  0.00000000E+00  0.00000000E+00  0.00000000E+00
  0.00000000E+00  0.00000000E+00  0.00000000E+00
  0.00000000E+00  0.00000000E+00  0.00000000E+00
  0.00000000E+00  0.00000000E+00  0.00000000E+00
  0.00000000E+00  0.00000000E+00  0.00000000E+00
  0.00000000E+00  0.00000000E+00  0.00000000E+00
