Ba10 Sr10 Co24 H1 O70                   
    1.000000000000000     
    11.1057150000000000    0.0000000000000000    0.0000000000000000
    -0.0047930000000000    5.5528550000000001    0.0000000000000000
     0.0000000000000000    0.0000000000000000   87.2902260000000041
   Ba   Sr   Co   H    O 
    10    10    24     1    70
Direct
  0.9996587599635877  0.0006407986994840  0.5551443007485479
  0.5008374698583886  0.0002155767180754  0.5551211936226512
  0.2531429725223441  0.5008449966948043  0.6008957700598954
  0.7530880517000879  0.5019412108358661  0.6009143027155393
  0.0004240042928058  0.9978716047418749  0.4637063513175415
  0.5004545780521925  0.9978217283994451  0.4637103475581364
  0.2497155192848005  0.4952474126481783  0.5096089213488618
  0.7495406776624638  0.4960836932443707  0.5095905606280530
  0.2503358999544248  0.5006335451417928  0.4168242139763564
  0.7503885865675179  0.5004713180634472  0.4168256077314372
  0.2514894942438623  0.4909334365747698  0.5554223326028743
  0.7503162209313122  0.4960163271253454  0.5553255062642807
  0.5000910186211630  0.0084066059450077  0.6011010317502234
  0.0002510605409829  0.0085914698066074  0.6010994758708949
  0.2527496782469155  0.4992954007089974  0.4633212635770314
  0.7511263678683567  0.4919703564366304  0.4634252072140935
  0.4997979377140512  0.9925500433666017  0.5090179755703308
 -0.0000311884971518  0.9925289859148705  0.5090125662698433
  0.5001005731327137 -0.0000971162434740  0.4175532831088450
  0.0001207605360007  0.0000055317547247  0.4175555054895066
  0.2484880360152124  0.0093577813469036  0.6221438467628673
  0.7483001826210028  0.0103240429091001  0.6217866758325856
  0.0019725581125091  0.5113865836987188  0.6218801766626156
  0.5027012843693893  0.5132200404024969  0.6218233594382255
  0.9996494010568674  0.5094418008477453  0.5782023898931818
  0.4997955736770228  0.5092657715505469  0.5782262814295175
  0.2500627698361168  0.0015900032979479  0.5773955946524775
  0.7506239603389968  0.0087118991368826  0.5775780533830259
  0.2509138186329263  0.9925507720972206  0.5323167619494099
  0.7502116122422933  0.9992036899981080  0.5320609463253515
  0.9999195506791018  0.4994044779362531  0.5320335946706046
  0.4999338815866553  0.4993100993653208  0.5320313618169550
  0.9992725727161790  0.5063622135796694  0.4863628228522750
  0.4992032805284999  0.5062279612191083  0.4863711298863365
  0.2500457939031667  0.0001214686578683  0.4866941759657376
  0.7500630998442048 -0.0001519961399596  0.4866882140289776
  0.2512339242954761  0.9908920864871487  0.4408521026179383
  0.7514164886675336  0.9904635627074280  0.4408355040254565
 -0.0010150606499186  0.4906194858518416  0.4407909666828277
  0.4990760385485792  0.4906031615155179  0.4407699714900447
  0.9982142005158749  0.5106804704946661  0.3953395094199288
  0.4982270750787053  0.5106993097737428  0.3953312107383455
  0.2518759447774542  0.0110009922879420  0.3953015382836396
  0.7518741171510890  0.0109828476175269  0.3953010181685785
  0.4059018965876762  0.1254232433475042  0.6440126870778062
  0.0000123020025533  0.4999112306656396  0.6004385466399852
  0.5000069654970809  0.4999018177203493  0.6004370602351855
  0.9953078421846779  0.4999130728546796  0.5531799465047749
  0.5046949619911560  0.5000381344193311  0.5531806187063415
  0.1308612319178729  0.7921562576118674  0.6225739070022972
  0.6309982930751704  0.7876632601228609  0.6229004317627408
  0.3811369582834472  0.7124802753635364  0.6229052834100666
  0.8810817636303456  0.7125235194417336  0.6229058793369370
  0.3691800687943547  0.2124509194647610  0.6228994857824015
  0.8691043328987844  0.2083086577035007  0.6227568257267345
  0.1188631376680288  0.2876434922333719  0.6229016854179823
  0.6189182402513480  0.2875027222664348  0.6229054292381351
  0.2500115904421207 -0.0000354347156122  0.5542895293041297
  0.7500006426997636 -0.0000109483400041  0.5542859908977162
  0.2500218879004926  0.0000536800708311  0.5995812824908371
  0.7500021606310993 -0.0000139306936584  0.5995675305213861
  0.3772090287141106  0.2802207174456780  0.5779954361238540
  0.8772360595562244  0.2801722483915018  0.5780246022163724
  0.1262724455889943  0.2247984755327311  0.5781153303856595
  0.6262679215936756  0.2248361002337715  0.5781182296320160
  0.1228542936854206  0.7198844283295373  0.5779856155490328
  0.6228355105442043  0.7199087949726830  0.5780019666887228
  0.3737565950458644  0.7751476499136024  0.5781156179050737
  0.8737459688405795  0.7752133567349572  0.5781179241002097
  0.9953216417654467  0.4999787240779828  0.5078651216013871
  0.4953231875821508  0.4999786754027097  0.5078652291004992
  0.0000011706038921  0.4999452552988743  0.4644897003384265
  0.5000026065917289  0.4999443047145057  0.4644894373474652
  0.1379998354410089  0.7747585415495891  0.5327992898380618
  0.6380554560410340  0.7748928668227784  0.5327953206661665
  0.3880362238073236  0.7249979084133378  0.5327929324156016
  0.8880438324681738  0.7250321136508935  0.5327884924807001
  0.3619278689647869  0.2249688608209138  0.5327958984795719
  0.8619379011917813  0.2250370215439841  0.5327929095057552
  0.1119493644211988  0.2749927050013266  0.5327909987184941
  0.6119654043832494  0.2749357388689651  0.5327866562200536
  0.2500083525572234  0.9875329921495868  0.4635248560915449
  0.7500059501170594  0.9875379924718030  0.4635247600577333
  0.2499968898741361  0.9875755516344844  0.5088461251901635
  0.7499987284947885  0.9875864619050065  0.5088476719116273
  0.3928076526509684  0.2624739476326575  0.4869558144024289
  0.8928065123668395  0.2624725932412986  0.4869557995592361
  0.1428717592172548  0.2373949964399499  0.4864759855716430
  0.6428694525427626  0.2373964831440976  0.4864758657898064
  0.1072225016214419  0.7375599702847878  0.4869581228339422
  0.6072218430366771  0.7375585011036195  0.4869582322749973
  0.3571867568515576  0.7625108177247568  0.4864755671089105
  0.8571872504762990  0.7625095634685843  0.4864756862867717
  0.0000177110012219  0.4999855886607069  0.4191490667182346
  0.5000140553109846  0.4999900811911508  0.4191456869060893
  0.1379993176600566  0.7748561083220143  0.4406233138476242
  0.6379991822791884  0.7748545418652900  0.4406231934783859
  0.3858004562460301  0.7249070006562396  0.4406329975998481
  0.8858020536663962  0.7249022579433492  0.4406329186829972
  0.3619549093291005  0.2249194129455670  0.4406277105723778
  0.8619581908968258  0.2249208206347752  0.4406279924577868
  0.1142654357165767  0.2748786605219253  0.4406364154682431
  0.6142682348412267  0.2748737373542606  0.4406366091036398
  0.2499944460898508  0.9999661898206172  0.4167709101538978
  0.7499947029334254  0.9999650629898356  0.4167708520653642
  0.3881819294691335  0.2751258813811446  0.3937638361130038
  0.8881820270749996  0.2751263018559406  0.3937638514968412
  0.1380867103279632  0.2248348427544684  0.3937533551111073
  0.6380808225516154  0.2248207214618176  0.3937540424315909
  0.1118325103382058  0.7249586089808987  0.3937620567590418
  0.6118328828426635  0.7249589477563754  0.3937619818209201
  0.3619291807079036  0.7752277817151582  0.3937546044143758
  0.8619278910634129  0.7752304080787996  0.3937548975159857
  0.2497741338074916  0.0123470240761145  0.6443228910918773
  0.3453724250101494  0.0874512373582974  0.6525635753415281
 
  0.00000000E+00  0.00000000E+00  0.00000000E+00
  0.00000000E+00  0.00000000E+00  0.00000000E+00
  0.00000000E+00  0.00000000E+00  0.00000000E+00
  0.00000000E+00  0.00000000E+00  0.00000000E+00
  0.00000000E+00  0.00000000E+00  0.00000000E+00
  0.00000000E+00  0.00000000E+00  0.00000000E+00
  0.00000000E+00  0.00000000E+00  0.00000000E+00
  0.00000000E+00  0.00000000E+00  0.00000000E+00
  0.00000000E+00  0.00000000E+00  0.00000000E+00
  0.00000000E+00  0.00000000E+00  0.00000000E+00
  0.00000000E+00  0.00000000E+00  0.00000000E+00
  0.00000000E+00  0.00000000E+00  0.00000000E+00
  0.00000000E+00  0.00000000E+00  0.00000000E+00
  0.00000000E+00  0.00000000E+00  0.00000000E+00
  0.00000000E+00  0.00000000E+00  0.00000000E+00
  0.00000000E+00  0.00000000E+00  0.00000000E+00
  0.00000000E+00  0.00000000E+00  0.00000000E+00
  0.00000000E+00  0.00000000E+00  0.00000000E+00
  0.00000000E+00  0.00000000E+00  0.00000000E+00
  0.00000000E+00  0.00000000E+00  0.00000000E+00
  0.00000000E+00  0.00000000E+00  0.00000000E+00
  0.00000000E+00  0.00000000E+00  0.00000000E+00
  0.00000000E+00  0.00000000E+00  0.00000000E+00
  0.00000000E+00  0.00000000E+00  0.00000000E+00
  0.00000000E+00  0.00000000E+00  0.00000000E+00
  0.00000000E+00  0.00000000E+00  0.00000000E+00
  0.00000000E+00  0.00000000E+00  0.00000000E+00
  0.00000000E+00  0.00000000E+00  0.00000000E+00
  0.00000000E+00  0.00000000E+00  0.00000000E+00
  0.00000000E+00  0.00000000E+00  0.00000000E+00
  0.00000000E+00  0.00000000E+00  0.00000000E+00
  0.00000000E+00  0.00000000E+00  0.00000000E+00
  0.00000000E+00  0.00000000E+00  0.00000000E+00
  0.00000000E+00  0.00000000E+00  0.00000000E+00
  0.00000000E+00  0.00000000E+00  0.00000000E+00
  0.00000000E+00  0.00000000E+00  0.00000000E+00
  0.00000000E+00  0.00000000E+00  0.00000000E+00
  0.00000000E+00  0.00000000E+00  0.00000000E+00
  0.00000000E+00  0.00000000E+00  0.00000000E+00
  0.00000000E+00  0.00000000E+00  0.00000000E+00
  0.00000000E+00  0.00000000E+00  0.00000000E+00
  0.00000000E+00  0.00000000E+00  0.00000000E+00
  0.00000000E+00  0.00000000E+00  0.00000000E+00
  0.00000000E+00  0.00000000E+00  0.00000000E+00
  0.00000000E+00  0.00000000E+00  0.00000000E+00
  0.00000000E+00  0.00000000E+00  0.00000000E+00
  0.00000000E+00  0.00000000E+00  0.00000000E+00
  0.00000000E+00  0.00000000E+00  0.00000000E+00
  0.00000000E+00  0.00000000E+00  0.00000000E+00
  0.00000000E+00  0.00000000E+00  0.00000000E+00
  0.00000000E+00  0.00000000E+00  0.00000000E+00
  0.00000000E+00  0.00000000E+00  0.00000000E+00
  0.00000000E+00  0.00000000E+00  0.00000000E+00
  0.00000000E+00  0.00000000E+00  0.00000000E+00
  0.00000000E+00  0.00000000E+00  0.00000000E+00
  0.00000000E+00  0.00000000E+00  0.00000000E+00
  0.00000000E+00  0.00000000E+00  0.00000000E+00
  0.00000000E+00  0.00000000E+00  0.00000000E+00
  0.00000000E+00  0.00000000E+00  0.00000000E+00
  0.00000000E+00  0.00000000E+00  0.00000000E+00
  0.00000000E+00  0.00000000E+00  0.00000000E+00
  0.00000000E+00  0.00000000E+00  0.00000000E+00
  0.00000000E+00  0.00000000E+00  0.00000000E+00
  0.00000000E+00  0.00000000E+00  0.00000000E+00
  0.00000000E+00  0.00000000E+00  0.00000000E+00
  0.00000000E+00  0.00000000E+00  0.00000000E+00
  0.00000000E+00  0.00000000E+00  0.00000000E+00
  0.00000000E+00  0.00000000E+00  0.00000000E+00
  0.00000000E+00  0.00000000E+00  0.00000000E+00
  0.00000000E+00  0.00000000E+00  0.00000000E+00
  0.00000000E+00  0.00000000E+00  0.00000000E+00
  0.00000000E+00  0.00000000E+00  0.00000000E+00
  0.00000000E+00  0.00000000E+00  0.00000000E+00
  0.00000000E+00  0.00000000E+00  0.00000000E+00
  0.00000000E+00  0.00000000E+00  0.00000000E+00
  0.00000000E+00  0.00000000E+00  0.00000000E+00
  0.00000000E+00  0.00000000E+00  0.00000000E+00
  0.00000000E+00  0.00000000E+00  0.00000000E+00
  0.00000000E+00  0.00000000E+00  0.00000000E+00
  0.00000000E+00  0.00000000E+00  0.00000000E+00
  0.00000000E+00  0.00000000E+00  0.00000000E+00
  0.00000000E+00  0.00000000E+00  0.00000000E+00
  0.00000000E+00  0.00000000E+00  0.00000000E+00
  0.00000000E+00  0.00000000E+00  0.00000000E+00
  0.00000000E+00  0.00000000E+00  0.00000000E+00
  0.00000000E+00  0.00000000E+00  0.00000000E+00
  0.00000000E+00  0.00000000E+00  0.00000000E+00
  0.00000000E+00  0.00000000E+00  0.00000000E+00
  0.00000000E+00  0.00000000E+00  0.00000000E+00
  0.00000000E+00  0.00000000E+00  0.00000000E+00
  0.00000000E+00  0.00000000E+00  0.00000000E+00
  0.00000000E+00  0.00000000E+00  0.00000000E+00
  0.00000000E+00  0.00000000E+00  0.00000000E+00
  0.00000000E+00  0.00000000E+00  0.00000000E+00
  0.00000000E+00  0.00000000E+00  0.00000000E+00
  0.00000000E+00  0.00000000E+00  0.00000000E+00
  0.00000000E+00  0.00000000E+00  0.00000000E+00
  0.00000000E+00  0.00000000E+00  0.00000000E+00
  0.00000000E+00  0.00000000E+00  0.00000000E+00
  0.00000000E+00  0.00000000E+00  0.00000000E+00
  0.00000000E+00  0.00000000E+00  0.00000000E+00
  0.00000000E+00  0.00000000E+00  0.00000000E+00
  0.00000000E+00  0.00000000E+00  0.00000000E+00
  0.00000000E+00  0.00000000E+00  0.00000000E+00
  0.00000000E+00  0.00000000E+00  0.00000000E+00
  0.00000000E+00  0.00000000E+00  0.00000000E+00
  0.00000000E+00  0.00000000E+00  0.00000000E+00
  0.00000000E+00  0.00000000E+00  0.00000000E+00
  0.00000000E+00  0.00000000E+00  0.00000000E+00
  0.00000000E+00  0.00000000E+00  0.00000000E+00
  0.00000000E+00  0.00000000E+00  0.00000000E+00
  0.00000000E+00  0.00000000E+00  0.00000000E+00
  0.00000000E+00  0.00000000E+00  0.00000000E+00
  0.00000000E+00  0.00000000E+00  0.00000000E+00
  0.00000000E+00  0.00000000E+00  0.00000000E+00
