Ba10 Sr10 Co24 H1 O70                   
    1.000000000000000     
    11.1057150000000000    0.0000000000000000    0.0000000000000000
    -0.0047930000000000    5.5528550000000001    0.0000000000000000
     0.0000000000000000    0.0000000000000000   87.2902260000000041
   Ba   Sr   Co   H    O 
    10    10    24     1    70
Direct
  0.9991841858748429  0.0005543588643643  0.5550727368514905
  0.4999935591772514  0.0003092158926299  0.5550717182554102
  0.2527929092460016  0.4984056083302057  0.6008306615355240
  0.7530319912688211  0.5010831944147719  0.6008730441299669
 -0.0003261178337252  0.0000261720440407  0.4637007777349956
  0.5010871348300748  0.0001128785328943  0.4637249882840362
  0.2495226481543072  0.4954755679098472  0.5094788086714840
  0.7492084484203866  0.4967671745321314  0.5094503515407104
  0.2497118032241143  0.5020637854163394  0.4168327609226585
  0.7497246090005012  0.4998850394405029  0.4168161600352121
  0.2501057118644702  0.4919025998358786  0.5552687533627898
  0.7498911762998006  0.4941700790918301  0.5552989862052053
  0.5008966040026054  0.0073366846076922  0.6009558977646311
  0.0002113262888646  0.0087700434684723  0.6010460297991586
  0.2526720175128721  0.4997430137780846  0.4633177613046956
  0.7502303903831300  0.4933837328073640  0.4634202902969605
  0.4996490554460746  0.9926143172041390  0.5089447321953455
  0.9996279039969528  0.9929846333908136  0.5088587696359806
  0.4998417766412342  0.0009683554626879  0.4175549192301071
  0.0001712482983728  0.0010232193477948  0.4175599701558886
  0.2505725666830628 -0.0092421729103642  0.6221906580246129
  0.7480745280120585  0.0098425999487564  0.6217382153109385
  0.0019710124163493  0.5104553130587237  0.6218335630721151
  0.5020622276335477  0.5114728515325165  0.6218560324586508
  0.9996372265901385  0.5089025536892711  0.5780128325667473
  0.4996705521713851  0.5088832762839659  0.5780281855491540
  0.2499926772052178  0.0005240713959442  0.5773766118101235
  0.7498643149614583  0.0016253209245046  0.5773665558541453
  0.2507845194296274  0.9925804198641528  0.5321986696491060
  0.7500779283340167  0.9991238170812522  0.5320477295561942
  0.9997801394758998  0.4993474698900840  0.5320201899707940
  0.4998353433845374  0.4992230690786528  0.5320209193924853
  0.9992046339554461  0.5064772252981448  0.4863652390729798
  0.4991223528684616  0.5063477482039626  0.4863845452292389
  0.2500073566848657  0.0001895742499606  0.4866924729928919
  0.7500189840423237 -0.0001298182269519  0.4866823358846177
  0.2499529989626672  0.9997294050194330  0.4413390362832727
  0.7510765109082563  0.9917716278221591  0.4408219906480609
  0.0000390538569516  0.4995276887370848  0.4413400655365112
  0.5000520810541316  0.4995027197176725  0.4413326375289484
  0.9981075453038238  0.5107991961465363  0.3953595952723663
  0.4981039353354872  0.5107788750864979  0.3953551518230362
  0.2518235170334804  0.0110911362790915  0.3953169160364051
  0.7517902212719682  0.0108545327589187  0.3952879397631762
  0.2756991399568971  0.8750675785561585  0.6626796845996046
  0.0000056664337821  0.4999149795315804  0.6004362295411312
  0.5000047186071399  0.4999163960047058  0.6004339604448746
  0.9953070085875568  0.4999135330439511  0.5531801902620299
  0.5046946131039063  0.5000392729980797  0.5531804276606714
  0.1308979771053962  0.7874399549200580  0.6224152774233361
  0.6310052757742152  0.7876600642706508  0.6228994497764455
  0.3811117881927975  0.7124980810044110  0.6229012693325867
  0.8810781598713069  0.7125147985704546  0.6229053690232013
  0.3690140200702582  0.2123501220489940  0.6224151801801026
  0.8690951426667302  0.2082709243475809  0.6227556836473376
  0.1188138063118129  0.2876524698694774  0.6229009053463066
  0.6189302083033558  0.2875206878788052  0.6229037195499613
  0.2499998965673114 -0.0000349397098207  0.5542751419168025
  0.7500027980538889 -0.0000174271015151  0.5542753038188494
  0.2500130733153341 -0.0000078722229957  0.5995784757970345
  0.7500000905038631 -0.0000229998328387  0.5995634595302957
  0.3771952322746430  0.2802108834327177  0.5779769639459079
  0.8772017225006390  0.2802005783619568  0.5779952541564457
  0.1262703687576557  0.2247903803834468  0.5781134945055325
  0.6262713958071944  0.2247803971608419  0.5781155856909590
  0.1228525917356122  0.7198897346872730  0.5779765169785488
  0.6228515045031905  0.7199324507340493  0.5779876107753499
  0.3737528341936067  0.7751478758456075  0.5781138679817840
  0.8737451633613642  0.7751766072951186  0.5781158778104701
  0.9953157891204922  0.4999782806201709  0.5078634764505533
  0.4953187415421805  0.4999787017541030  0.5078640125906103
  0.0000001883544305  0.4999766115814768  0.4644877495459417
  0.5000020419909251  0.4999770091262060  0.4644870273925630
  0.1380016257041043  0.7747453281940634  0.5327973670123557
  0.6380439324442052  0.7748853324757757  0.5327950871906860
  0.3880321121097894  0.7249875581524923  0.5327915095074667
  0.8880405100084393  0.7250271777076025  0.5327869988543175
  0.3619244626106338  0.2249791973722690  0.5327937232679592
  0.8619282282307776  0.2250386202452442  0.5327912148879229
  0.1119450444695586  0.2749972302629434  0.5327894644454407
  0.6119609516012154  0.2749355629310566  0.5327852344228512
  0.2500099071946250  0.9875289908405726  0.4635264836831288
  0.7500023170030713  0.9875310063475992  0.4635240793798269
  0.2499946012179539  0.9875738413202626  0.5088451933326041
  0.7499960526045262  0.9875858706536309  0.5088462369536828
  0.3928023721355916  0.2624676369627792  0.4869548148279259
  0.8928015460423899  0.2624696670837333  0.4869549976751691
  0.1428635267900743  0.2373969963101238  0.4864746646489566
  0.6428620911166375  0.2373989532947447  0.4864745655502749
  0.1072207739263550  0.7375643790587604  0.4869569701907182
  0.6072201277776009  0.7375608540099913  0.4869572064837822
  0.3571860797317100  0.7625104665351594  0.4864745720856262
  0.8571868059894575  0.7625082628069656  0.4864749769634276
  0.0000046675993309  0.4999775286475034  0.4191639840629994
  0.5000023421846342  0.4999775156794588  0.4191642246887474
  0.1380143992400139  0.7749552468849658  0.4406250268894171
  0.6379766282049989  0.7748285873216039  0.4406234768246113
  0.3857813846039693  0.7249918883388550  0.4406346832156424
  0.8857681827109928  0.7249905146604456  0.4406337534212533
  0.3619684231447096  0.2250026830070075  0.4406295567769307
  0.8619339631726906  0.2248848554254730  0.4406276571713483
  0.1142439170333849  0.2749647613427247  0.4406363365997472
  0.6142206721451570  0.2749826000002841  0.4406354177590244
  0.2499922667074499 -0.0000124553483463  0.4167658522795359
  0.7499912347224040 -0.0000484045727782  0.4167693409072182
  0.3881800241269229  0.2751344339191998  0.3937625512946418
  0.8881799359535424  0.2751315515385410  0.3937623908467193
  0.1380887970553917  0.2248400043311138  0.3937516612902605
  0.6380829704078781  0.2248349296779343  0.3937518063188544
  0.1118275689582800  0.7249498001475438  0.3937604287039213
  0.6118290105987297  0.7249525429731168  0.3937604106662154
  0.3619188555702274  0.7752387452079725  0.3937536417985242
  0.8619195227719273  0.7752341826498541  0.3937535833013199
  0.2571091901289771  0.0248704783929222  0.6437734990137981
  0.2737804070100756  0.8125227667456708  0.6520959819310945
 
  0.00000000E+00  0.00000000E+00  0.00000000E+00
  0.00000000E+00  0.00000000E+00  0.00000000E+00
  0.00000000E+00  0.00000000E+00  0.00000000E+00
  0.00000000E+00  0.00000000E+00  0.00000000E+00
  0.00000000E+00  0.00000000E+00  0.00000000E+00
  0.00000000E+00  0.00000000E+00  0.00000000E+00
  0.00000000E+00  0.00000000E+00  0.00000000E+00
  0.00000000E+00  0.00000000E+00  0.00000000E+00
  0.00000000E+00  0.00000000E+00  0.00000000E+00
  0.00000000E+00  0.00000000E+00  0.00000000E+00
  0.00000000E+00  0.00000000E+00  0.00000000E+00
  0.00000000E+00  0.00000000E+00  0.00000000E+00
  0.00000000E+00  0.00000000E+00  0.00000000E+00
  0.00000000E+00  0.00000000E+00  0.00000000E+00
  0.00000000E+00  0.00000000E+00  0.00000000E+00
  0.00000000E+00  0.00000000E+00  0.00000000E+00
  0.00000000E+00  0.00000000E+00  0.00000000E+00
  0.00000000E+00  0.00000000E+00  0.00000000E+00
  0.00000000E+00  0.00000000E+00  0.00000000E+00
  0.00000000E+00  0.00000000E+00  0.00000000E+00
  0.00000000E+00  0.00000000E+00  0.00000000E+00
  0.00000000E+00  0.00000000E+00  0.00000000E+00
  0.00000000E+00  0.00000000E+00  0.00000000E+00
  0.00000000E+00  0.00000000E+00  0.00000000E+00
  0.00000000E+00  0.00000000E+00  0.00000000E+00
  0.00000000E+00  0.00000000E+00  0.00000000E+00
  0.00000000E+00  0.00000000E+00  0.00000000E+00
  0.00000000E+00  0.00000000E+00  0.00000000E+00
  0.00000000E+00  0.00000000E+00  0.00000000E+00
  0.00000000E+00  0.00000000E+00  0.00000000E+00
  0.00000000E+00  0.00000000E+00  0.00000000E+00
  0.00000000E+00  0.00000000E+00  0.00000000E+00
  0.00000000E+00  0.00000000E+00  0.00000000E+00
  0.00000000E+00  0.00000000E+00  0.00000000E+00
  0.00000000E+00  0.00000000E+00  0.00000000E+00
  0.00000000E+00  0.00000000E+00  0.00000000E+00
  0.00000000E+00  0.00000000E+00  0.00000000E+00
  0.00000000E+00  0.00000000E+00  0.00000000E+00
  0.00000000E+00  0.00000000E+00  0.00000000E+00
  0.00000000E+00  0.00000000E+00  0.00000000E+00
  0.00000000E+00  0.00000000E+00  0.00000000E+00
  0.00000000E+00  0.00000000E+00  0.00000000E+00
  0.00000000E+00  0.00000000E+00  0.00000000E+00
  0.00000000E+00  0.00000000E+00  0.00000000E+00
  0.00000000E+00  0.00000000E+00  0.00000000E+00
  0.00000000E+00  0.00000000E+00  0.00000000E+00
  0.00000000E+00  0.00000000E+00  0.00000000E+00
  0.00000000E+00  0.00000000E+00  0.00000000E+00
  0.00000000E+00  0.00000000E+00  0.00000000E+00
  0.00000000E+00  0.00000000E+00  0.00000000E+00
  0.00000000E+00  0.00000000E+00  0.00000000E+00
  0.00000000E+00  0.00000000E+00  0.00000000E+00
  0.00000000E+00  0.00000000E+00  0.00000000E+00
  0.00000000E+00  0.00000000E+00  0.00000000E+00
  0.00000000E+00  0.00000000E+00  0.00000000E+00
  0.00000000E+00  0.00000000E+00  0.00000000E+00
  0.00000000E+00  0.00000000E+00  0.00000000E+00
  0.00000000E+00  0.00000000E+00  0.00000000E+00
  0.00000000E+00  0.00000000E+00  0.00000000E+00
  0.00000000E+00  0.00000000E+00  0.00000000E+00
  0.00000000E+00  0.00000000E+00  0.00000000E+00
  0.00000000E+00  0.00000000E+00  0.00000000E+00
  0.00000000E+00  0.00000000E+00  0.00000000E+00
  0.00000000E+00  0.00000000E+00  0.00000000E+00
  0.00000000E+00  0.00000000E+00  0.00000000E+00
  0.00000000E+00  0.00000000E+00  0.00000000E+00
  0.00000000E+00  0.00000000E+00  0.00000000E+00
  0.00000000E+00  0.00000000E+00  0.00000000E+00
  0.00000000E+00  0.00000000E+00  0.00000000E+00
  0.00000000E+00  0.00000000E+00  0.00000000E+00
  0.00000000E+00  0.00000000E+00  0.00000000E+00
  0.00000000E+00  0.00000000E+00  0.00000000E+00
  0.00000000E+00  0.00000000E+00  0.00000000E+00
  0.00000000E+00  0.00000000E+00  0.00000000E+00
  0.00000000E+00  0.00000000E+00  0.00000000E+00
  0.00000000E+00  0.00000000E+00  0.00000000E+00
  0.00000000E+00  0.00000000E+00  0.00000000E+00
  0.00000000E+00  0.00000000E+00  0.00000000E+00
  0.00000000E+00  0.00000000E+00  0.00000000E+00
  0.00000000E+00  0.00000000E+00  0.00000000E+00
  0.00000000E+00  0.00000000E+00  0.00000000E+00
  0.00000000E+00  0.00000000E+00  0.00000000E+00
  0.00000000E+00  0.00000000E+00  0.00000000E+00
  0.00000000E+00  0.00000000E+00  0.00000000E+00
  0.00000000E+00  0.00000000E+00  0.00000000E+00
  0.00000000E+00  0.00000000E+00  0.00000000E+00
  0.00000000E+00  0.00000000E+00  0.00000000E+00
  0.00000000E+00  0.00000000E+00  0.00000000E+00
  0.00000000E+00  0.00000000E+00  0.00000000E+00
  0.00000000E+00  0.00000000E+00  0.00000000E+00
  0.00000000E+00  0.00000000E+00  0.00000000E+00
  0.00000000E+00  0.00000000E+00  0.00000000E+00
  0.00000000E+00  0.00000000E+00  0.00000000E+00
  0.00000000E+00  0.00000000E+00  0.00000000E+00
  0.00000000E+00  0.00000000E+00  0.00000000E+00
  0.00000000E+00  0.00000000E+00  0.00000000E+00
  0.00000000E+00  0.00000000E+00  0.00000000E+00
  0.00000000E+00  0.00000000E+00  0.00000000E+00
  0.00000000E+00  0.00000000E+00  0.00000000E+00
  0.00000000E+00  0.00000000E+00  0.00000000E+00
  0.00000000E+00  0.00000000E+00  0.00000000E+00
  0.00000000E+00  0.00000000E+00  0.00000000E+00
  0.00000000E+00  0.00000000E+00  0.00000000E+00
  0.00000000E+00  0.00000000E+00  0.00000000E+00
  0.00000000E+00  0.00000000E+00  0.00000000E+00
  0.00000000E+00  0.00000000E+00  0.00000000E+00
  0.00000000E+00  0.00000000E+00  0.00000000E+00
  0.00000000E+00  0.00000000E+00  0.00000000E+00
  0.00000000E+00  0.00000000E+00  0.00000000E+00
  0.00000000E+00  0.00000000E+00  0.00000000E+00
  0.00000000E+00  0.00000000E+00  0.00000000E+00
  0.00000000E+00  0.00000000E+00  0.00000000E+00
  0.00000000E+00  0.00000000E+00  0.00000000E+00
  0.00000000E+00  0.00000000E+00  0.00000000E+00
  0.00000000E+00  0.00000000E+00  0.00000000E+00
