H4 Ir32 O68                             
   1.00000000000000     
     6.3790139999999997    0.0000000000000000    0.0000000000000000
     0.0000000000000000   12.8550290000000000    0.0000000000000000
     0.0000000000000000    0.0000000000000000   38.5650860000000009
   H    Ir   O 
     4    32    68
Direct
 -0.0000000424305408  0.2000745541353460  0.6811314179495747
  0.0000000114095374  0.7000279697315405  0.6811501376984748
  0.5000000419240717  0.2000744287370478  0.6811314701616890
  0.4999999888963806  0.7000279451436201  0.6811501507249179
  0.2500000001699680  0.1249562253561066  0.3734941319778778
  0.2500000005671364  0.6249558891259096  0.3734942584894186
  0.7499999998092585  0.1249562251339081  0.3734941326129363
  0.7499999992902646  0.6249558888436397  0.3734942594097739
  0.0000000012141644  0.3748336354648945  0.3760699252226810
  0.0000000009007007  0.8748349663983364  0.3760702535299505
  0.4999999987183729  0.3748336356046759  0.3760699256227993
  0.4999999991709162  0.8748349666351548  0.3760702540203776
  0.2499999996138499  0.3747005833372220  0.4579295993688811
  0.2499999995788359  0.8747015949424177  0.4579295574234356
  0.7500000002691619  0.3747005836348641  0.4579295990332008
  0.7500000004252205  0.8747015941402598  0.4579295572474925
  0.0000000021500789  0.1248575981513495  0.4579054580367394
  0.0000000031881106  0.6248572729921927  0.4579054927950745
  0.4999999978399213  0.1248575982351549  0.4579054580094682
  0.4999999968498297  0.6248572728880709  0.4579054926813936
  0.2500000001312580  0.1250422418915622  0.5412003940693502
  0.2500000009655750  0.6250424837779553  0.5412005057713848
  0.7500000000223815  0.1250422400791532  0.5412003938377637
  0.7499999992385062  0.6250424860098859  0.5412005055328759
 -0.0000000077669773  0.3745150459324904  0.5418270184647840
 -0.0000000042102655  0.8745157888027931  0.5418269776927377
  0.5000000077158330  0.3745150457031686  0.5418270185064040
  0.5000000038634268  0.8745157885333251  0.5418269777552367
  0.2500000037793843  0.3756369907693188  0.6259835100348486
  0.2500000018570968  0.8756359427643350  0.6259839036543423
  0.7499999962632394  0.3756369913329492  0.6259835091968724
  0.7499999981518968  0.8756359423423136  0.6259839098085398
 -0.0000000006442705  0.1249497359239121  0.6243926940483953
  0.0000000005815081  0.6249636244019641  0.6243938152460995
  0.5000000006263559  0.1249497627943368  0.6243926958118068
  0.4999999994854274  0.6249636426632391  0.6243938160872223
  0.0000000002456843  0.1249943293521388  0.3423422867241221
  0.0000000004661120  0.6249943468976967  0.3423422898236331
  0.4999999997430188  0.1249943293458760  0.3423422866525753
  0.4999999995728476  0.6249943468851780  0.3423422894965321
  0.2500000001306062  0.2771279934424488  0.3749480071012563
  0.2500000002864322  0.7771280974311959  0.3749480161063558
  0.7499999998033984  0.2771279900707045  0.3749480074352258
  0.7499999997970218  0.7771280922547144  0.3749480166038571
 -0.0000000001614966  0.1249944447188450  0.4075647437064411
 -0.0000000007906477  0.6249944892852742  0.4075647673792248
  0.5000000001569552  0.1249944447127389  0.4075647436689454
  0.5000000007506126  0.6249944892749166  0.4075647674060042
  0.2500000002694940  0.4728504946130617  0.3749489370813310
  0.2500000001661419  0.9728505502697999  0.3749489473876820
  0.7499999998280321  0.4728504967232814  0.3749489372861203
  0.7499999998283726  0.9728505519659075  0.3749489475385357
  0.0000000017894735  0.3749952321698596  0.4257086089144376
  0.0000000012216741  0.8749951430463291  0.4257086272404432
  0.4999999982086606  0.3749952321935102  0.4257086089144515
  0.4999999987548771  0.8749951429931579  0.4257086272786321
  0.2499999997924467  0.0271287775665450  0.4583100720447873
  0.2500000000934553  0.5271287632615445  0.4583100706648807
  0.7500000002186881  0.0271287767658822  0.4583100720667174
  0.7499999999304469  0.5271287625975927  0.4583100706795767
  0.0000000005639421  0.3749917389929571  0.4909395536821595
  0.0000000002295021  0.8749917171145494  0.4909395396288244
  0.4999999994596526  0.3749917390130222  0.4909395535066972
  0.4999999997458913  0.8749917171216510  0.4909395397737269
  0.2499999997304824  0.2228358219638421  0.4583103409871570
  0.2500000000807868  0.7228358866661093  0.4583103358721244
  0.7500000002648242  0.2228358219067708  0.4583103409822619
  0.7499999999474616  0.7228358865781543  0.4583103358872318
 -0.0000000002511205  0.1249959219342688  0.5090121021248563
 -0.0000000002726868  0.6249959630922667  0.5090121075528818
  0.5000000002408527  0.1249959219249289  0.5090121021500863
  0.5000000002860673  0.6249959631079626  0.5090121076457353
  0.2499999996077055  0.2771236806846921  0.5416472618528383
  0.2500000002599095  0.7771237868624205  0.5416472484573465
  0.7500000004116061  0.2771236799814344  0.5416472618376252
  0.7499999997218143  0.7771237859115081  0.5416472484449721
 -0.0000000034274894  0.1249721638054122  0.5741782556701922
 -0.0000000040056008  0.6249722046254956  0.5741783062095548
  0.5000000035923060  0.1249721616205521  0.5741782550943090
  0.5000000042224814  0.6249722072257223  0.5741783065117669
  0.2499999994268674  0.4728369108592002  0.5416474708487169
  0.2500000003408303  0.9728369027516094  0.5416474818861170
  0.7500000005772024  0.4728369109309330  0.5416474708164176
  0.7499999996211599  0.9728369027282676  0.5416474818399030
 -0.0000000000925380  0.3749963393160705  0.5923758579884866
  0.0000000030108067  0.8749963473014474  0.5923758605739036
  0.5000000001208609  0.3749963394894477  0.5923758578570995
  0.4999999969937666  0.8749963471479490  0.5923758607206183
  0.2499999979619655  0.0271362874030970  0.6249666027444606
  0.2499999993098072  0.5271366782220505  0.6249666238649304
  0.7500000020633030  0.0271362868763307  0.6249666028809499
  0.7500000006951479  0.5271366781407443  0.6249666238900039
  0.0000000000349123  0.3749609839096232  0.6576097755584696
  0.0000000043034298  0.8749611014827956  0.6576097711093027
  0.4999999999766773  0.3749609840600357  0.6576097754247302
  0.4999999956970867  0.8749611015104449  0.6576097710968943
  0.2499999980315222  0.2228859725520173  0.6249546863565325
  0.2499999991771382  0.7228863251020655  0.6249547009883907
  0.7500000019564738  0.2228859728234495  0.6249546862992992
  0.7500000008345318  0.7228863247620849  0.6249547008902493
 -0.0000000003852679  0.1284165892467050  0.6725583260534965
 -0.0000000000429494  0.6284119352605396  0.6725583268389589
  0.5000000003024877  0.1284165758759367  0.6725583258488443
  0.4999999999584671  0.6284119319208064  0.6725583270142618
 
  0.00000000E+00  0.00000000E+00  0.00000000E+00
  0.00000000E+00  0.00000000E+00  0.00000000E+00
  0.00000000E+00  0.00000000E+00  0.00000000E+00
  0.00000000E+00  0.00000000E+00  0.00000000E+00
  0.00000000E+00  0.00000000E+00  0.00000000E+00
  0.00000000E+00  0.00000000E+00  0.00000000E+00
  0.00000000E+00  0.00000000E+00  0.00000000E+00
  0.00000000E+00  0.00000000E+00  0.00000000E+00
  0.00000000E+00  0.00000000E+00  0.00000000E+00
  0.00000000E+00  0.00000000E+00  0.00000000E+00
  0.00000000E+00  0.00000000E+00  0.00000000E+00
  0.00000000E+00  0.00000000E+00  0.00000000E+00
  0.00000000E+00  0.00000000E+00  0.00000000E+00
  0.00000000E+00  0.00000000E+00  0.00000000E+00
  0.00000000E+00  0.00000000E+00  0.00000000E+00
  0.00000000E+00  0.00000000E+00  0.00000000E+00
  0.00000000E+00  0.00000000E+00  0.00000000E+00
  0.00000000E+00  0.00000000E+00  0.00000000E+00
  0.00000000E+00  0.00000000E+00  0.00000000E+00
  0.00000000E+00  0.00000000E+00  0.00000000E+00
  0.00000000E+00  0.00000000E+00  0.00000000E+00
  0.00000000E+00  0.00000000E+00  0.00000000E+00
  0.00000000E+00  0.00000000E+00  0.00000000E+00
  0.00000000E+00  0.00000000E+00  0.00000000E+00
  0.00000000E+00  0.00000000E+00  0.00000000E+00
  0.00000000E+00  0.00000000E+00  0.00000000E+00
  0.00000000E+00  0.00000000E+00  0.00000000E+00
  0.00000000E+00  0.00000000E+00  0.00000000E+00
  0.00000000E+00  0.00000000E+00  0.00000000E+00
  0.00000000E+00  0.00000000E+00  0.00000000E+00
  0.00000000E+00  0.00000000E+00  0.00000000E+00
  0.00000000E+00  0.00000000E+00  0.00000000E+00
  0.00000000E+00  0.00000000E+00  0.00000000E+00
  0.00000000E+00  0.00000000E+00  0.00000000E+00
  0.00000000E+00  0.00000000E+00  0.00000000E+00
  0.00000000E+00  0.00000000E+00  0.00000000E+00
  0.00000000E+00  0.00000000E+00  0.00000000E+00
  0.00000000E+00  0.00000000E+00  0.00000000E+00
  0.00000000E+00  0.00000000E+00  0.00000000E+00
  0.00000000E+00  0.00000000E+00  0.00000000E+00
  0.00000000E+00  0.00000000E+00  0.00000000E+00
  0.00000000E+00  0.00000000E+00  0.00000000E+00
  0.00000000E+00  0.00000000E+00  0.00000000E+00
  0.00000000E+00  0.00000000E+00  0.00000000E+00
  0.00000000E+00  0.00000000E+00  0.00000000E+00
  0.00000000E+00  0.00000000E+00  0.00000000E+00
  0.00000000E+00  0.00000000E+00  0.00000000E+00
  0.00000000E+00  0.00000000E+00  0.00000000E+00
  0.00000000E+00  0.00000000E+00  0.00000000E+00
  0.00000000E+00  0.00000000E+00  0.00000000E+00
  0.00000000E+00  0.00000000E+00  0.00000000E+00
  0.00000000E+00  0.00000000E+00  0.00000000E+00
  0.00000000E+00  0.00000000E+00  0.00000000E+00
  0.00000000E+00  0.00000000E+00  0.00000000E+00
  0.00000000E+00  0.00000000E+00  0.00000000E+00
  0.00000000E+00  0.00000000E+00  0.00000000E+00
  0.00000000E+00  0.00000000E+00  0.00000000E+00
  0.00000000E+00  0.00000000E+00  0.00000000E+00
  0.00000000E+00  0.00000000E+00  0.00000000E+00
  0.00000000E+00  0.00000000E+00  0.00000000E+00
  0.00000000E+00  0.00000000E+00  0.00000000E+00
  0.00000000E+00  0.00000000E+00  0.00000000E+00
  0.00000000E+00  0.00000000E+00  0.00000000E+00
  0.00000000E+00  0.00000000E+00  0.00000000E+00
  0.00000000E+00  0.00000000E+00  0.00000000E+00
  0.00000000E+00  0.00000000E+00  0.00000000E+00
  0.00000000E+00  0.00000000E+00  0.00000000E+00
  0.00000000E+00  0.00000000E+00  0.00000000E+00
  0.00000000E+00  0.00000000E+00  0.00000000E+00
  0.00000000E+00  0.00000000E+00  0.00000000E+00
  0.00000000E+00  0.00000000E+00  0.00000000E+00
  0.00000000E+00  0.00000000E+00  0.00000000E+00
  0.00000000E+00  0.00000000E+00  0.00000000E+00
  0.00000000E+00  0.00000000E+00  0.00000000E+00
  0.00000000E+00  0.00000000E+00  0.00000000E+00
  0.00000000E+00  0.00000000E+00  0.00000000E+00
  0.00000000E+00  0.00000000E+00  0.00000000E+00
  0.00000000E+00  0.00000000E+00  0.00000000E+00
  0.00000000E+00  0.00000000E+00  0.00000000E+00
  0.00000000E+00  0.00000000E+00  0.00000000E+00
  0.00000000E+00  0.00000000E+00  0.00000000E+00
  0.00000000E+00  0.00000000E+00  0.00000000E+00
  0.00000000E+00  0.00000000E+00  0.00000000E+00
  0.00000000E+00  0.00000000E+00  0.00000000E+00
  0.00000000E+00  0.00000000E+00  0.00000000E+00
  0.00000000E+00  0.00000000E+00  0.00000000E+00
  0.00000000E+00  0.00000000E+00  0.00000000E+00
  0.00000000E+00  0.00000000E+00  0.00000000E+00
  0.00000000E+00  0.00000000E+00  0.00000000E+00
  0.00000000E+00  0.00000000E+00  0.00000000E+00
  0.00000000E+00  0.00000000E+00  0.00000000E+00
  0.00000000E+00  0.00000000E+00  0.00000000E+00
  0.00000000E+00  0.00000000E+00  0.00000000E+00
  0.00000000E+00  0.00000000E+00  0.00000000E+00
  0.00000000E+00  0.00000000E+00  0.00000000E+00
  0.00000000E+00  0.00000000E+00  0.00000000E+00
  0.00000000E+00  0.00000000E+00  0.00000000E+00
  0.00000000E+00  0.00000000E+00  0.00000000E+00
  0.00000000E+00  0.00000000E+00  0.00000000E+00
  0.00000000E+00  0.00000000E+00  0.00000000E+00
  0.00000000E+00  0.00000000E+00  0.00000000E+00
  0.00000000E+00  0.00000000E+00  0.00000000E+00
  0.00000000E+00  0.00000000E+00  0.00000000E+00
  0.00000000E+00  0.00000000E+00  0.00000000E+00
