Ba10 Sr10 Co24 O68                      
    1.000000000000000     
    11.1057150000000000    0.0000000000000000    0.0000000000000000
    -0.0047930000000000    5.5528550000000001    0.0000000000000000
     0.0000000000000000    0.0000000000000000   87.2902260000000041
   Ba   Sr   Co   O 
    10    10    24    68
Direct
  0.9998659999999973  0.9978679999999969  0.5550769999999972
  0.5002799999999965  0.9977590000000021  0.5550679999999986
  0.2506679999999974  0.5002819999999986  0.6010640000000009
  0.7530140000000003  0.4997189999999989  0.6008769999999970
  0.0007090000000005  0.9981539999999995  0.4637090000000015
  0.5006950000000003  0.9981069999999974  0.4637079999999969
  0.2495949999999993  0.4952699999999979  0.5094390000000004
  0.7495860000000008  0.4952710000000025  0.5094440000000020
  0.2501409999999993  0.4996289999999988  0.4168280000000024
  0.7501320000000007  0.4995789999999971  0.4168289999999999
  0.2499940000000009  0.4909049999999979  0.5553039999999996
  0.7501699999999971  0.4912169999999989  0.5552920000000015
  0.5001290000000012  0.0041289999999989  0.6009730000000033
  0.0001999999999995  0.0054840000000027  0.6009730000000033
  0.2527060000000034  0.4990280000000027  0.4633200000000031
  0.7522179999999992  0.4971540000000019  0.4633699999999976
  0.4998229999999992  0.9916339999999977  0.5089120000000023
  0.9998360000000019  0.9916920000000005  0.5089159999999993
  0.5000670000000014  0.9992280000000022  0.4175559999999976
  0.0000760000000000  0.9992519999999985  0.4175559999999976
  0.2484979999999979  0.0107900000000001  0.6217979999999983
  0.7479230000000001  0.0098569999999967  0.6217740000000020
  0.0017369999999985  0.5112949999999969  0.6218969999999970
  0.5017169999999993  0.5112549999999985  0.6218810000000019
  0.9996590000000012  0.5084200000000010  0.5782099999999986
  0.4996579999999966  0.5083709999999968  0.5780710000000013
  0.2500130000000027  0.0003940000000000  0.5773689999999974
  0.7499409999999997  0.0003960000000021  0.5773670000000024
  0.2503400000000013  0.9975390000000033  0.5320559999999972
  0.7503209999999996  0.9977739999999997  0.5320540000000022
  0.9997270000000000  0.4989520000000027  0.5320260000000019
  0.4998009999999979  0.4988260000000011  0.5320269999999994
  0.9992360000000033  0.5057339999999968  0.4863830000000036
  0.4992030000000014  0.5056000000000012  0.4863860000000031
  0.2499690000000001  0.9997740000000022  0.4866889999999984
  0.7499710000000022  0.9996799999999979  0.4866900000000030
  0.2503480000000025  0.9986809999999977  0.4413180000000025
  0.7504720000000020  0.9983160000000026  0.4413079999999994
  0.0001809999999978  0.4991199999999978  0.4413270000000011
  0.5002649999999988  0.4990480000000019  0.4413240000000016
  0.9982430000000022  0.5104129999999998  0.3953520000000026
  0.4982439999999997  0.5104100000000003  0.3953520000000026
  0.2517700000000005  0.0106439999999992  0.3953130000000016
  0.7517700000000005  0.0106380000000001  0.3953119999999970
  0.0000020000000021  0.4998599999999982  0.6004349999999974
  0.5000020000000021  0.4998519999999971  0.6004339999999999
  0.9953069999999968  0.4998509999999996  0.5531799999999976
  0.5046919999999986  0.4999770000000012  0.5531810000000021
  0.1310080000000013  0.7920299999999969  0.6227469999999968
  0.6310069999999968  0.7876240000000010  0.6228989999999968
  0.3810679999999991  0.7125320000000031  0.6229039999999983
  0.8810679999999991  0.7124960000000016  0.6229050000000029
  0.3690089999999984  0.2123589999999993  0.6228989999999968
  0.8691109999999966  0.2080410000000015  0.6227500000000035
  0.1189210000000003  0.2874949999999998  0.6229030000000009
  0.6189249999999973  0.2874660000000020  0.6229020000000034
  0.2500009999999975  0.9999159999999989  0.5542760000000015
  0.7500029999999995  0.9999120000000019  0.5542760000000015
  0.2500089999999986  0.9999260000000021  0.5995640000000009
  0.7499990000000025  0.9998969999999971  0.5995630000000034
  0.3771920000000009  0.2801699999999983  0.5779799999999966
  0.8772170000000017  0.2801079999999985  0.5779959999999988
  0.1262729999999976  0.2247380000000021  0.5781139999999994
  0.6262759999999972  0.2247199999999978  0.5781149999999968
  0.1228490000000022  0.7198270000000022  0.5779830000000032
  0.6228610000000003  0.7198539999999980  0.5779870000000003
  0.3737459999999970  0.7751189999999966  0.5781149999999968
  0.8737470000000016  0.7751280000000023  0.5781160000000014
  0.9953179999999975  0.4999350000000007  0.5078639999999979
  0.4953190000000021  0.4999350000000007  0.5078639999999979
  0.9999990000000025  0.4999040000000008  0.4644869999999983
  0.4999990000000025  0.4999019999999987  0.4644869999999983
  0.1380399999999966  0.7747949999999975  0.5327959999999976
  0.6380520000000018  0.7748320000000035  0.5327929999999981
  0.3880440000000007  0.7249290000000030  0.5327910000000031
  0.8880399999999966  0.7249789999999976  0.5327869999999990
  0.3619399999999970  0.2250080000000025  0.5327940000000027
  0.8619300000000010  0.2249809999999997  0.5327920000000006
  0.1119569999999968  0.2749390000000034  0.5327890000000011
  0.6119600000000034  0.2748849999999976  0.5327849999999970
  0.2500110000000006  0.9875049999999987  0.4635260000000017
  0.7500100000000032  0.9875060000000033  0.4635260000000017
  0.2499910000000014  0.9875619999999969  0.5088459999999984
  0.7499910000000014  0.9875650000000036  0.5088459999999984
  0.3928000000000011  0.2624360000000010  0.4869550000000018
  0.8928009999999986  0.2624369999999985  0.4869550000000018
  0.1428640000000030  0.2373720000000006  0.4864749999999987
  0.6428629999999984  0.2373720000000006  0.4864749999999987
  0.1072210000000027  0.7375359999999986  0.4869569999999968
  0.6072210000000027  0.7375339999999966  0.4869569999999968
  0.3571880000000007  0.7624830000000031  0.4864740000000012
  0.8571880000000007  0.7624819999999985  0.4864740000000012
  0.0000009999999975  0.4999070000000003  0.4191640000000021
  0.5000029999999995  0.4999139999999969  0.4191640000000021
  0.1380169999999978  0.7749030000000019  0.4406249999999972
  0.6380169999999978  0.7749000000000024  0.4406249999999972
  0.3857840000000010  0.7249389999999991  0.4406340000000029
  0.8857830000000035  0.7249410000000012  0.4406340000000029
  0.3619709999999969  0.2249589999999984  0.4406290000000013
  0.8619709999999969  0.2249559999999988  0.4406290000000013
  0.1142469999999989  0.2749120000000005  0.4406359999999978
  0.6142480000000035  0.2749090000000010  0.4406359999999978
  0.2499910000000014  0.9999040000000008  0.4167660000000026
  0.7499910000000014  0.9999030000000033  0.4167660000000026
  0.3881810000000030  0.2750899999999987  0.3937620000000024
  0.8881810000000030  0.2750899999999987  0.3937620000000024
  0.1380780000000001  0.2247869999999992  0.3937519999999992
  0.6380780000000001  0.2247860000000017  0.3937519999999992
  0.1118290000000002  0.7249109999999988  0.3937600000000003
  0.6118310000000022  0.7249049999999997  0.3937600000000003
  0.3619240000000019  0.7751900000000020  0.3937529999999967
  0.8619240000000019  0.7751900000000020  0.3937529999999967
 
  0.00000000E+00  0.00000000E+00  0.00000000E+00
  0.00000000E+00  0.00000000E+00  0.00000000E+00
  0.00000000E+00  0.00000000E+00  0.00000000E+00
  0.00000000E+00  0.00000000E+00  0.00000000E+00
  0.00000000E+00  0.00000000E+00  0.00000000E+00
  0.00000000E+00  0.00000000E+00  0.00000000E+00
  0.00000000E+00  0.00000000E+00  0.00000000E+00
  0.00000000E+00  0.00000000E+00  0.00000000E+00
  0.00000000E+00  0.00000000E+00  0.00000000E+00
  0.00000000E+00  0.00000000E+00  0.00000000E+00
  0.00000000E+00  0.00000000E+00  0.00000000E+00
  0.00000000E+00  0.00000000E+00  0.00000000E+00
  0.00000000E+00  0.00000000E+00  0.00000000E+00
  0.00000000E+00  0.00000000E+00  0.00000000E+00
  0.00000000E+00  0.00000000E+00  0.00000000E+00
  0.00000000E+00  0.00000000E+00  0.00000000E+00
  0.00000000E+00  0.00000000E+00  0.00000000E+00
  0.00000000E+00  0.00000000E+00  0.00000000E+00
  0.00000000E+00  0.00000000E+00  0.00000000E+00
  0.00000000E+00  0.00000000E+00  0.00000000E+00
  0.00000000E+00  0.00000000E+00  0.00000000E+00
  0.00000000E+00  0.00000000E+00  0.00000000E+00
  0.00000000E+00  0.00000000E+00  0.00000000E+00
  0.00000000E+00  0.00000000E+00  0.00000000E+00
  0.00000000E+00  0.00000000E+00  0.00000000E+00
  0.00000000E+00  0.00000000E+00  0.00000000E+00
  0.00000000E+00  0.00000000E+00  0.00000000E+00
  0.00000000E+00  0.00000000E+00  0.00000000E+00
  0.00000000E+00  0.00000000E+00  0.00000000E+00
  0.00000000E+00  0.00000000E+00  0.00000000E+00
  0.00000000E+00  0.00000000E+00  0.00000000E+00
  0.00000000E+00  0.00000000E+00  0.00000000E+00
  0.00000000E+00  0.00000000E+00  0.00000000E+00
  0.00000000E+00  0.00000000E+00  0.00000000E+00
  0.00000000E+00  0.00000000E+00  0.00000000E+00
  0.00000000E+00  0.00000000E+00  0.00000000E+00
  0.00000000E+00  0.00000000E+00  0.00000000E+00
  0.00000000E+00  0.00000000E+00  0.00000000E+00
  0.00000000E+00  0.00000000E+00  0.00000000E+00
  0.00000000E+00  0.00000000E+00  0.00000000E+00
  0.00000000E+00  0.00000000E+00  0.00000000E+00
  0.00000000E+00  0.00000000E+00  0.00000000E+00
  0.00000000E+00  0.00000000E+00  0.00000000E+00
  0.00000000E+00  0.00000000E+00  0.00000000E+00
  0.00000000E+00  0.00000000E+00  0.00000000E+00
  0.00000000E+00  0.00000000E+00  0.00000000E+00
  0.00000000E+00  0.00000000E+00  0.00000000E+00
  0.00000000E+00  0.00000000E+00  0.00000000E+00
  0.00000000E+00  0.00000000E+00  0.00000000E+00
  0.00000000E+00  0.00000000E+00  0.00000000E+00
  0.00000000E+00  0.00000000E+00  0.00000000E+00
  0.00000000E+00  0.00000000E+00  0.00000000E+00
  0.00000000E+00  0.00000000E+00  0.00000000E+00
  0.00000000E+00  0.00000000E+00  0.00000000E+00
  0.00000000E+00  0.00000000E+00  0.00000000E+00
  0.00000000E+00  0.00000000E+00  0.00000000E+00
  0.00000000E+00  0.00000000E+00  0.00000000E+00
  0.00000000E+00  0.00000000E+00  0.00000000E+00
  0.00000000E+00  0.00000000E+00  0.00000000E+00
  0.00000000E+00  0.00000000E+00  0.00000000E+00
  0.00000000E+00  0.00000000E+00  0.00000000E+00
  0.00000000E+00  0.00000000E+00  0.00000000E+00
  0.00000000E+00  0.00000000E+00  0.00000000E+00
  0.00000000E+00  0.00000000E+00  0.00000000E+00
  0.00000000E+00  0.00000000E+00  0.00000000E+00
  0.00000000E+00  0.00000000E+00  0.00000000E+00
  0.00000000E+00  0.00000000E+00  0.00000000E+00
  0.00000000E+00  0.00000000E+00  0.00000000E+00
  0.00000000E+00  0.00000000E+00  0.00000000E+00
  0.00000000E+00  0.00000000E+00  0.00000000E+00
  0.00000000E+00  0.00000000E+00  0.00000000E+00
  0.00000000E+00  0.00000000E+00  0.00000000E+00
  0.00000000E+00  0.00000000E+00  0.00000000E+00
  0.00000000E+00  0.00000000E+00  0.00000000E+00
  0.00000000E+00  0.00000000E+00  0.00000000E+00
  0.00000000E+00  0.00000000E+00  0.00000000E+00
  0.00000000E+00  0.00000000E+00  0.00000000E+00
  0.00000000E+00  0.00000000E+00  0.00000000E+00
  0.00000000E+00  0.00000000E+00  0.00000000E+00
  0.00000000E+00  0.00000000E+00  0.00000000E+00
  0.00000000E+00  0.00000000E+00  0.00000000E+00
  0.00000000E+00  0.00000000E+00  0.00000000E+00
  0.00000000E+00  0.00000000E+00  0.00000000E+00
  0.00000000E+00  0.00000000E+00  0.00000000E+00
  0.00000000E+00  0.00000000E+00  0.00000000E+00
  0.00000000E+00  0.00000000E+00  0.00000000E+00
  0.00000000E+00  0.00000000E+00  0.00000000E+00
  0.00000000E+00  0.00000000E+00  0.00000000E+00
  0.00000000E+00  0.00000000E+00  0.00000000E+00
  0.00000000E+00  0.00000000E+00  0.00000000E+00
  0.00000000E+00  0.00000000E+00  0.00000000E+00
  0.00000000E+00  0.00000000E+00  0.00000000E+00
  0.00000000E+00  0.00000000E+00  0.00000000E+00
  0.00000000E+00  0.00000000E+00  0.00000000E+00
  0.00000000E+00  0.00000000E+00  0.00000000E+00
  0.00000000E+00  0.00000000E+00  0.00000000E+00
  0.00000000E+00  0.00000000E+00  0.00000000E+00
  0.00000000E+00  0.00000000E+00  0.00000000E+00
  0.00000000E+00  0.00000000E+00  0.00000000E+00
  0.00000000E+00  0.00000000E+00  0.00000000E+00
  0.00000000E+00  0.00000000E+00  0.00000000E+00
  0.00000000E+00  0.00000000E+00  0.00000000E+00
  0.00000000E+00  0.00000000E+00  0.00000000E+00
  0.00000000E+00  0.00000000E+00  0.00000000E+00
  0.00000000E+00  0.00000000E+00  0.00000000E+00
  0.00000000E+00  0.00000000E+00  0.00000000E+00
  0.00000000E+00  0.00000000E+00  0.00000000E+00
  0.00000000E+00  0.00000000E+00  0.00000000E+00
  0.00000000E+00  0.00000000E+00  0.00000000E+00
  0.00000000E+00  0.00000000E+00  0.00000000E+00
  0.00000000E+00  0.00000000E+00  0.00000000E+00
  0.00000000E+00  0.00000000E+00  0.00000000E+00
