H4 Ir32 O68                             
   1.00000000000000     
     6.3790139999999997    0.0000000000000000    0.0000000000000000
     0.0000000000000000   12.8550290000000000    0.0000000000000000
     0.0000000000000000    0.0000000000000000   38.5650860000000009
   H    Ir   O 
     4    32    68
Direct
  0.1516477845590121  0.1250000242987204  0.6810411564446703
  0.1516481444755146  0.6250000277948017  0.6810411672375594
  0.6516477675832072  0.1250000247347090  0.6810411532685188
  0.6516481856224728  0.6250000272832446  0.6810411674786589
  0.2492987111500788  0.1249998195003588  0.3734454785218260
  0.2492955690056547  0.6250001613250299  0.3734458230580944
  0.7492976867418307  0.1249999260524820  0.3734454623076368
  0.7492980793779014  0.6250001473249385  0.3734458278145697
 -0.0000531791691138  0.3749989179343126  0.3755002791442958
 -0.0000621413484330  0.8750000515310209  0.3755005162239421
  0.4999468482097425  0.3750008994526977  0.3755002970365138
  0.4999394056896318  0.8750003283047605  0.3755003989051530
  0.2499137925153285  0.3749999807479183  0.4578068879993907
  0.2499129262590015  0.8750000345525475  0.4578068245423823
  0.7499139065589815  0.3750000143501419  0.4578070199610043
  0.7499122869527189  0.8750000114799895  0.4578068385330392
 -0.0002137299720151  0.1249999368649359  0.4578538453335668
 -0.0002136118233701  0.6250001428384382  0.4578539368849855
  0.4997857732406183  0.1249987593022326  0.4578538494470768
  0.4997864464398915  0.6250001532955027  0.4578539284996684
  0.2499816327624621  0.1249998827968109  0.5411917899614721
  0.2499816306822756  0.6250002263742731  0.5411918496062037
  0.7499817087924554  0.1249998498153633  0.5411917882107025
  0.7499816203823407  0.6250002629474870  0.5411918483926751
 -0.0014667889985910  0.3749998295302939  0.5414802488616013
 -0.0014676717985572  0.8750001288804330  0.5414803272120949
  0.4985319000497261  0.3750001476566293  0.5414801722664900
  0.4985322780691595  0.8750001273222482  0.5414803218666492
  0.2496934670309714  0.3749999793323033  0.6262257766317930
  0.2496917985659874  0.8750003326315001  0.6262264154686809
  0.7496934683882845  0.3749999804633473  0.6262257796157932
  0.7496918018369817  0.8750003325939270  0.6262264244282557
  0.0018014845820629  0.1249999979818949  0.6244960979645714
  0.0018013442433646  0.6250001274714044  0.6244961955081183
  0.5018014620381481  0.1249999967978907  0.6244960897269400
  0.5018013161132626  0.6250001260287703  0.6244962080296929
 -0.0000832798354726  0.1250000227462806  0.3423350393539618
 -0.0000827902214091  0.6250000058705313  0.3423350057646615
  0.4999167380740801  0.1249999695443597  0.3423350319956179
  0.4999171997816779  0.6250000017194481  0.3423350091139961
  0.2499385226091484  0.2771307353121970  0.3749315458159019
  0.2499059765026078  0.7771315486350948  0.3749312257694148
  0.7499021715450710  0.2771314434083470  0.3749312264110951
  0.7499012259382263  0.7771314602962716  0.3749312423586875
 -0.0003863821931188  0.1250000206780256  0.4075433174663093
 -0.0003864335556775  0.6250000069928758  0.4075433061870293
  0.4996136151720029  0.1249999667889415  0.4075433190963203
  0.4996135528359322  0.6250000037325336  0.4075433020638077
  0.2499062221248859  0.4728684715197152  0.3749312168790737
  0.2499045328988500  0.9728684571303444  0.3749312347755606
  0.7499018626324507  0.4728685709817271  0.3749312339924553
  0.7499014117603816  0.9728685465369843  0.3749312354639411
 -0.0000621626202443  0.3749999879411831  0.4256818457940487
 -0.0000620883274457  0.8749999981195306  0.4256818559647833
  0.4999379462055139  0.3750000169622538  0.4256818518669040
  0.4999378783248747  0.8750000012278788  0.4256818521809706
  0.2499452280832073  0.0271459339198467  0.4583020500471540
  0.2499453182492945  0.5271460638808155  0.4583020448608311
  0.7499462292820572  0.0271459436976195  0.4583020713856104
  0.7499453159284777  0.5271460480049071  0.4583020512338326
 -0.0002087064597150  0.3750000112089310  0.4909148764169491
 -0.0002211679798576  0.8749999903644726  0.4909147346974940
  0.4997788096160234  0.3750000143203254  0.4909147422153807
  0.4997788112766778  0.8749999930089013  0.4909147347892868
  0.2499453642465418  0.2228539169284696  0.4583020430223208
  0.2499452900624527  0.7228540498853729  0.4583020527265396
  0.7499453487344877  0.2228539331779104  0.4583020487686739
  0.7499453305557895  0.7228540628424219  0.4583020547023701
 -0.0000618233645798  0.1249999945181564  0.5090074703735250
 -0.0000618321047158  0.6250000081567372  0.5090074414414654
  0.4999381932759812  0.1249999849488897  0.5090074701733345
  0.4999381808286872  0.6250000099156106  0.5090074423136354
  0.2497378737391980  0.2771493297017767  0.5416367650700825
  0.2497378203994241  0.7771492779704567  0.5416367676091479
  0.7497376614811362  0.2771493449071600  0.5416367557232241
  0.7497377255997022  0.7771492825712767  0.5416367677425367
 -0.0004453598041435  0.1249999902142854  0.5742009350343175
 -0.0004452376494293  0.6250000138368860  0.5742008593457845
  0.4995546377489628  0.1249999890923012  0.5742009299058634
  0.4995548107948595  0.6250000146254047  0.5742008659611716
  0.2497378994957481  0.4728507774691245  0.5416367685780096
  0.2497377889485852  0.9728506316840700  0.5416367634077685
  0.7497377073119766  0.4728507646439900  0.5416367594123274
  0.7497377060013067  0.9728506254658675  0.5416367631541684
 -0.0001907833848020  0.3750000132192682  0.5923642074490080
 -0.0001904642956379  0.8749999903226310  0.5923642178478032
  0.4998095038283167  0.3750000173653681  0.5923642186709704
  0.4998094609066159  0.8749999877196120  0.5923642241018527
  0.2503097935279554  0.0271267698867795  0.6249620483466372
  0.2503094963428139  0.5271269885954664  0.6249620186930023
  0.7503098243004275  0.0271267717280209  0.6249620466897384
  0.7503094173283394  0.5271269859149947  0.6249620184075773
 -0.0000523205844402  0.3750000070289932  0.6576002425952925
 -0.0000523197808713  0.8749999960769282  0.6576002444108102
  0.4999476048388395  0.3750000095141626  0.6576002425837569
  0.4999476791015616  0.8749999934464081  0.6576002432890737
  0.2503094317472445  0.2228730250407856  0.6249620242736437
  0.2503098638837025  0.7228732373402366  0.6249620423439035
  0.7503094753016740  0.2228730242842634  0.6249620241856151
  0.7503097708437988  0.7228732388865357  0.6249620404569857
  0.0078701285933179  0.1249999831432233  0.6736302090953357
  0.0078631063717757  0.6250000113072001  0.6736291819077677
  0.5078699713647571  0.1249999825913480  0.6736302054719637
  0.5078636110051603  0.6250000118879061  0.6736291783576394
 
  0.00000000E+00  0.00000000E+00  0.00000000E+00
  0.00000000E+00  0.00000000E+00  0.00000000E+00
  0.00000000E+00  0.00000000E+00  0.00000000E+00
  0.00000000E+00  0.00000000E+00  0.00000000E+00
  0.00000000E+00  0.00000000E+00  0.00000000E+00
  0.00000000E+00  0.00000000E+00  0.00000000E+00
  0.00000000E+00  0.00000000E+00  0.00000000E+00
  0.00000000E+00  0.00000000E+00  0.00000000E+00
  0.00000000E+00  0.00000000E+00  0.00000000E+00
  0.00000000E+00  0.00000000E+00  0.00000000E+00
  0.00000000E+00  0.00000000E+00  0.00000000E+00
  0.00000000E+00  0.00000000E+00  0.00000000E+00
  0.00000000E+00  0.00000000E+00  0.00000000E+00
  0.00000000E+00  0.00000000E+00  0.00000000E+00
  0.00000000E+00  0.00000000E+00  0.00000000E+00
  0.00000000E+00  0.00000000E+00  0.00000000E+00
  0.00000000E+00  0.00000000E+00  0.00000000E+00
  0.00000000E+00  0.00000000E+00  0.00000000E+00
  0.00000000E+00  0.00000000E+00  0.00000000E+00
  0.00000000E+00  0.00000000E+00  0.00000000E+00
  0.00000000E+00  0.00000000E+00  0.00000000E+00
  0.00000000E+00  0.00000000E+00  0.00000000E+00
  0.00000000E+00  0.00000000E+00  0.00000000E+00
  0.00000000E+00  0.00000000E+00  0.00000000E+00
  0.00000000E+00  0.00000000E+00  0.00000000E+00
  0.00000000E+00  0.00000000E+00  0.00000000E+00
  0.00000000E+00  0.00000000E+00  0.00000000E+00
  0.00000000E+00  0.00000000E+00  0.00000000E+00
  0.00000000E+00  0.00000000E+00  0.00000000E+00
  0.00000000E+00  0.00000000E+00  0.00000000E+00
  0.00000000E+00  0.00000000E+00  0.00000000E+00
  0.00000000E+00  0.00000000E+00  0.00000000E+00
  0.00000000E+00  0.00000000E+00  0.00000000E+00
  0.00000000E+00  0.00000000E+00  0.00000000E+00
  0.00000000E+00  0.00000000E+00  0.00000000E+00
  0.00000000E+00  0.00000000E+00  0.00000000E+00
  0.00000000E+00  0.00000000E+00  0.00000000E+00
  0.00000000E+00  0.00000000E+00  0.00000000E+00
  0.00000000E+00  0.00000000E+00  0.00000000E+00
  0.00000000E+00  0.00000000E+00  0.00000000E+00
  0.00000000E+00  0.00000000E+00  0.00000000E+00
  0.00000000E+00  0.00000000E+00  0.00000000E+00
  0.00000000E+00  0.00000000E+00  0.00000000E+00
  0.00000000E+00  0.00000000E+00  0.00000000E+00
  0.00000000E+00  0.00000000E+00  0.00000000E+00
  0.00000000E+00  0.00000000E+00  0.00000000E+00
  0.00000000E+00  0.00000000E+00  0.00000000E+00
  0.00000000E+00  0.00000000E+00  0.00000000E+00
  0.00000000E+00  0.00000000E+00  0.00000000E+00
  0.00000000E+00  0.00000000E+00  0.00000000E+00
  0.00000000E+00  0.00000000E+00  0.00000000E+00
  0.00000000E+00  0.00000000E+00  0.00000000E+00
  0.00000000E+00  0.00000000E+00  0.00000000E+00
  0.00000000E+00  0.00000000E+00  0.00000000E+00
  0.00000000E+00  0.00000000E+00  0.00000000E+00
  0.00000000E+00  0.00000000E+00  0.00000000E+00
  0.00000000E+00  0.00000000E+00  0.00000000E+00
  0.00000000E+00  0.00000000E+00  0.00000000E+00
  0.00000000E+00  0.00000000E+00  0.00000000E+00
  0.00000000E+00  0.00000000E+00  0.00000000E+00
  0.00000000E+00  0.00000000E+00  0.00000000E+00
  0.00000000E+00  0.00000000E+00  0.00000000E+00
  0.00000000E+00  0.00000000E+00  0.00000000E+00
  0.00000000E+00  0.00000000E+00  0.00000000E+00
  0.00000000E+00  0.00000000E+00  0.00000000E+00
  0.00000000E+00  0.00000000E+00  0.00000000E+00
  0.00000000E+00  0.00000000E+00  0.00000000E+00
  0.00000000E+00  0.00000000E+00  0.00000000E+00
  0.00000000E+00  0.00000000E+00  0.00000000E+00
  0.00000000E+00  0.00000000E+00  0.00000000E+00
  0.00000000E+00  0.00000000E+00  0.00000000E+00
  0.00000000E+00  0.00000000E+00  0.00000000E+00
  0.00000000E+00  0.00000000E+00  0.00000000E+00
  0.00000000E+00  0.00000000E+00  0.00000000E+00
  0.00000000E+00  0.00000000E+00  0.00000000E+00
  0.00000000E+00  0.00000000E+00  0.00000000E+00
  0.00000000E+00  0.00000000E+00  0.00000000E+00
  0.00000000E+00  0.00000000E+00  0.00000000E+00
  0.00000000E+00  0.00000000E+00  0.00000000E+00
  0.00000000E+00  0.00000000E+00  0.00000000E+00
  0.00000000E+00  0.00000000E+00  0.00000000E+00
  0.00000000E+00  0.00000000E+00  0.00000000E+00
  0.00000000E+00  0.00000000E+00  0.00000000E+00
  0.00000000E+00  0.00000000E+00  0.00000000E+00
  0.00000000E+00  0.00000000E+00  0.00000000E+00
  0.00000000E+00  0.00000000E+00  0.00000000E+00
  0.00000000E+00  0.00000000E+00  0.00000000E+00
  0.00000000E+00  0.00000000E+00  0.00000000E+00
  0.00000000E+00  0.00000000E+00  0.00000000E+00
  0.00000000E+00  0.00000000E+00  0.00000000E+00
  0.00000000E+00  0.00000000E+00  0.00000000E+00
  0.00000000E+00  0.00000000E+00  0.00000000E+00
  0.00000000E+00  0.00000000E+00  0.00000000E+00
  0.00000000E+00  0.00000000E+00  0.00000000E+00
  0.00000000E+00  0.00000000E+00  0.00000000E+00
  0.00000000E+00  0.00000000E+00  0.00000000E+00
  0.00000000E+00  0.00000000E+00  0.00000000E+00
  0.00000000E+00  0.00000000E+00  0.00000000E+00
  0.00000000E+00  0.00000000E+00  0.00000000E+00
  0.00000000E+00  0.00000000E+00  0.00000000E+00
  0.00000000E+00  0.00000000E+00  0.00000000E+00
  0.00000000E+00  0.00000000E+00  0.00000000E+00
  0.00000000E+00  0.00000000E+00  0.00000000E+00
  0.00000000E+00  0.00000000E+00  0.00000000E+00
