H4 Ir32 O68                             
   1.00000000000000     
     6.3790139999999997    0.0000000000000000    0.0000000000000000
     0.0000000000000000   12.8550290000000000    0.0000000000000000
     0.0000000000000000    0.0000000000000000   38.5650860000000009
   H    Ir   O 
     4    32    68
Direct
  0.8483502277151338  0.1249999994323786  0.6810434427849422
  0.8483505337720175  0.6250000214193736  0.6810434455786535
  0.3483502187172944  0.1249999994247286  0.6810434420696819
  0.3483505292518164  0.6250000214188699  0.6810434460611536
  0.2507215027605628  0.1249999455072582  0.3734472859856491
  0.2507128132191621  0.6250000683341818  0.3734472546752141
  0.7507152882873381  0.1249999457689273  0.3734473891176701
  0.7507175781966703  0.6250000680679560  0.3734468781084043
  0.0000460473102069  0.3749992959558155  0.3754999919163528
  0.0000460066915893  0.8750006887093862  0.3754997778935472
  0.5000460981953079  0.3750007974620263  0.3754999964098976
  0.5000460660671924  0.8749991866124843  0.3754997767696825
  0.2500845103096083  0.3750000319803317  0.4578061802858270
  0.2500844869832194  0.8749999325927781  0.4578060626073371
  0.7500844941335360  0.3750000280376733  0.4578061786244036
  0.7500844551182424  0.8749999368565822  0.4578060607118652
  0.0002141676334386  0.1249998716490050  0.4578557470419980
  0.0002142133012681  0.6250001188615989  0.4578557301027580
  0.5002141923086285  0.1249998696874990  0.4578557520882955
  0.5002142428394637  0.6250001208042322  0.4578557125659838
  0.2500067799070013  0.1249999974733383  0.5411934214111226
  0.2500066940066448  0.6249999773629434  0.5411934914409665
  0.7500066964445121  0.1249999903936876  0.5411934242217343
  0.7500066899041730  0.6249999844681808  0.5411934900628117
  0.0014881501245802  0.3749994590324772  0.5414775205040572
  0.0014874966062252  0.8750005052976173  0.5414773157173051
  0.5014881348042133  0.3749994534738573  0.5414775200109050
  0.5014874862023380  0.8750005108622320  0.5414773143245267
  0.2503058086315454  0.3750003315872235  0.6262253109756900
  0.2503102392343703  0.8749997745416545  0.6262227905638950
  0.7503058251108107  0.3750003127168402  0.6262253106274792
  0.7503102451694220  0.8749997936399119  0.6262227913712782
 -0.0018116448433568  0.1250000418489925  0.6244962848207796
 -0.0018121209052712  0.6250000197707296  0.6244961790356551
  0.4981883408640678  0.1250000398607801  0.6244962392439301
  0.4981878892787568  0.6250000215416771  0.6244961802382977
  0.0000826368028268  0.1249999979326342  0.3423354507269249
  0.0000832442777202  0.6249999959770307  0.3423355714937542
  0.5000827602179393  0.1249999979582294  0.3423354432355072
  0.5000834658357451  0.6249999958968697  0.3423355748109311
  0.2500906920029942  0.2771319092767223  0.3749309310104880
  0.2500994600857948  0.7771313180496010  0.3749310100388298
  0.7500959139909953  0.2771320685595736  0.3749309414054061
  0.7500958920753382  0.7771320220856566  0.3749309359111403
  0.0003859947388499  0.1249999824588062  0.4075430830270825
  0.0003857960237942  0.6250000135460139  0.4075430997316191
  0.5003859988271306  0.1249999822713977  0.4075430876858621
  0.5003858087577421  0.6250000137552920  0.4075430925057130
  0.2500994913379949  0.4728686828468381  0.3749310159082779
  0.2500906645561706  0.9728680794734873  0.3749309253748609
  0.7500958731348955  0.4728679787379111  0.3749309414630116
  0.7500959324676469  0.9728679212196633  0.3749309360993939
  0.0000623115169373  0.3750000025461909  0.4256816699024344
  0.0000623717259376  0.8749999921958271  0.4256816542159672
  0.5000624881307467  0.3749999772522886  0.4256816721282242
  0.5000623775085999  0.8750000174679700  0.4256816547115612
  0.2500546690019029  0.0271457612318245  0.4583020771701902
  0.2500546490767872  0.5271458660836700  0.4583020882099379
  0.7500546840105964  0.0271457590217068  0.4583020776046547
  0.7500546592727730  0.5271458978090838  0.4583020832451596
  0.0002234109806338  0.3749999770124379  0.4909146231980598
  0.0002234445348853  0.8750000179625842  0.4909145848183876
  0.5002234747506742  0.3749999764289856  0.4909146210132523
  0.5002234344722464  0.8750000185521477  0.4909145848299490
  0.2500546400203131  0.2228541075293028  0.4583020835532433
  0.2500546776762274  0.7228542537279188  0.4583020815612527
  0.7500546686201112  0.2228540754903397  0.4583020783789053
  0.7500546741251333  0.7228542559202733  0.4583020821843352
  0.0000610066308346  0.1249999777402628  0.5090083176197214
  0.0000610547847481  0.6250000173358231  0.5090082904708504
  0.5000610206010451  0.1249999775809147  0.5090083181708843
  0.5000610566017887  0.6250000175120691  0.5090082910488219
  0.2502577988291105  0.2771501381614300  0.5416366454904062
  0.2502577759661413  0.7771501874521727  0.5416366457694410
  0.7502578642757031  0.2771501419886918  0.5416366446397298
  0.7502577969283044  0.7771501889869954  0.5416366457672320
  0.0004369642744191  0.1249999710226454  0.5742011701067661
  0.0004370359499919  0.6250000243420282  0.5742013240407581
  0.5004369671255522  0.1249999709950286  0.5742011721527032
  0.5004370238047993  0.6250000243511593  0.5742013215236801
  0.2502578078367127  0.4728498396160875  0.5416366496734782
  0.2502577667217331  0.9728498228158395  0.5416366413088890
  0.7502578717237002  0.4728498391981311  0.5416366495082267
  0.7502577889882848  0.9728498179131795  0.5416366406200215
  0.0001922596127655  0.3750000138048983  0.5923642056943227
  0.0001928689958066  0.8749999813138503  0.5923641415228287
  0.5001922425476196  0.3750000123522006  0.5923642027973448
  0.5001928683185609  0.8749999828001210  0.5923641412495494
  0.2496914987365823  0.0271269737227404  0.6249619348202647
  0.2496914269815363  0.5271272016778817  0.6249619459217108
  0.7496914749191080  0.0271269746022000  0.6249619351534316
  0.7496914013074744  0.5271272035063308  0.6249619455304523
  0.0000559861337457  0.3750000112285140  0.6576000734471487
  0.0000566931684642  0.8749999839492706  0.6575999098716135
  0.5000559697679873  0.3750000108695180  0.6576000736720227
  0.5000566859852188  0.8749999843651429  0.6575999097415205
  0.2496913998360469  0.2228728699119002  0.6249619484217857
  0.2496915275192855  0.7228729502864744  0.6249619313467345
  0.7496913588171160  0.2228728671015602  0.6249619480523702
  0.7496915191500079  0.7228729503868423  0.6249619317918903
 -0.0078676922809425  0.1249999620905121  0.6736286516504075
 -0.0078664921636027  0.6250000341189013  0.6736286286625328
  0.4921322456374471  0.1249999613801414  0.6736286527880917
  0.4921335120570786  0.6250000347850321  0.6736286268283050
 
  0.00000000E+00  0.00000000E+00  0.00000000E+00
  0.00000000E+00  0.00000000E+00  0.00000000E+00
  0.00000000E+00  0.00000000E+00  0.00000000E+00
  0.00000000E+00  0.00000000E+00  0.00000000E+00
  0.00000000E+00  0.00000000E+00  0.00000000E+00
  0.00000000E+00  0.00000000E+00  0.00000000E+00
  0.00000000E+00  0.00000000E+00  0.00000000E+00
  0.00000000E+00  0.00000000E+00  0.00000000E+00
  0.00000000E+00  0.00000000E+00  0.00000000E+00
  0.00000000E+00  0.00000000E+00  0.00000000E+00
  0.00000000E+00  0.00000000E+00  0.00000000E+00
  0.00000000E+00  0.00000000E+00  0.00000000E+00
  0.00000000E+00  0.00000000E+00  0.00000000E+00
  0.00000000E+00  0.00000000E+00  0.00000000E+00
  0.00000000E+00  0.00000000E+00  0.00000000E+00
  0.00000000E+00  0.00000000E+00  0.00000000E+00
  0.00000000E+00  0.00000000E+00  0.00000000E+00
  0.00000000E+00  0.00000000E+00  0.00000000E+00
  0.00000000E+00  0.00000000E+00  0.00000000E+00
  0.00000000E+00  0.00000000E+00  0.00000000E+00
  0.00000000E+00  0.00000000E+00  0.00000000E+00
  0.00000000E+00  0.00000000E+00  0.00000000E+00
  0.00000000E+00  0.00000000E+00  0.00000000E+00
  0.00000000E+00  0.00000000E+00  0.00000000E+00
  0.00000000E+00  0.00000000E+00  0.00000000E+00
  0.00000000E+00  0.00000000E+00  0.00000000E+00
  0.00000000E+00  0.00000000E+00  0.00000000E+00
  0.00000000E+00  0.00000000E+00  0.00000000E+00
  0.00000000E+00  0.00000000E+00  0.00000000E+00
  0.00000000E+00  0.00000000E+00  0.00000000E+00
  0.00000000E+00  0.00000000E+00  0.00000000E+00
  0.00000000E+00  0.00000000E+00  0.00000000E+00
  0.00000000E+00  0.00000000E+00  0.00000000E+00
  0.00000000E+00  0.00000000E+00  0.00000000E+00
  0.00000000E+00  0.00000000E+00  0.00000000E+00
  0.00000000E+00  0.00000000E+00  0.00000000E+00
  0.00000000E+00  0.00000000E+00  0.00000000E+00
  0.00000000E+00  0.00000000E+00  0.00000000E+00
  0.00000000E+00  0.00000000E+00  0.00000000E+00
  0.00000000E+00  0.00000000E+00  0.00000000E+00
  0.00000000E+00  0.00000000E+00  0.00000000E+00
  0.00000000E+00  0.00000000E+00  0.00000000E+00
  0.00000000E+00  0.00000000E+00  0.00000000E+00
  0.00000000E+00  0.00000000E+00  0.00000000E+00
  0.00000000E+00  0.00000000E+00  0.00000000E+00
  0.00000000E+00  0.00000000E+00  0.00000000E+00
  0.00000000E+00  0.00000000E+00  0.00000000E+00
  0.00000000E+00  0.00000000E+00  0.00000000E+00
  0.00000000E+00  0.00000000E+00  0.00000000E+00
  0.00000000E+00  0.00000000E+00  0.00000000E+00
  0.00000000E+00  0.00000000E+00  0.00000000E+00
  0.00000000E+00  0.00000000E+00  0.00000000E+00
  0.00000000E+00  0.00000000E+00  0.00000000E+00
  0.00000000E+00  0.00000000E+00  0.00000000E+00
  0.00000000E+00  0.00000000E+00  0.00000000E+00
  0.00000000E+00  0.00000000E+00  0.00000000E+00
  0.00000000E+00  0.00000000E+00  0.00000000E+00
  0.00000000E+00  0.00000000E+00  0.00000000E+00
  0.00000000E+00  0.00000000E+00  0.00000000E+00
  0.00000000E+00  0.00000000E+00  0.00000000E+00
  0.00000000E+00  0.00000000E+00  0.00000000E+00
  0.00000000E+00  0.00000000E+00  0.00000000E+00
  0.00000000E+00  0.00000000E+00  0.00000000E+00
  0.00000000E+00  0.00000000E+00  0.00000000E+00
  0.00000000E+00  0.00000000E+00  0.00000000E+00
  0.00000000E+00  0.00000000E+00  0.00000000E+00
  0.00000000E+00  0.00000000E+00  0.00000000E+00
  0.00000000E+00  0.00000000E+00  0.00000000E+00
  0.00000000E+00  0.00000000E+00  0.00000000E+00
  0.00000000E+00  0.00000000E+00  0.00000000E+00
  0.00000000E+00  0.00000000E+00  0.00000000E+00
  0.00000000E+00  0.00000000E+00  0.00000000E+00
  0.00000000E+00  0.00000000E+00  0.00000000E+00
  0.00000000E+00  0.00000000E+00  0.00000000E+00
  0.00000000E+00  0.00000000E+00  0.00000000E+00
  0.00000000E+00  0.00000000E+00  0.00000000E+00
  0.00000000E+00  0.00000000E+00  0.00000000E+00
  0.00000000E+00  0.00000000E+00  0.00000000E+00
  0.00000000E+00  0.00000000E+00  0.00000000E+00
  0.00000000E+00  0.00000000E+00  0.00000000E+00
  0.00000000E+00  0.00000000E+00  0.00000000E+00
  0.00000000E+00  0.00000000E+00  0.00000000E+00
  0.00000000E+00  0.00000000E+00  0.00000000E+00
  0.00000000E+00  0.00000000E+00  0.00000000E+00
  0.00000000E+00  0.00000000E+00  0.00000000E+00
  0.00000000E+00  0.00000000E+00  0.00000000E+00
  0.00000000E+00  0.00000000E+00  0.00000000E+00
  0.00000000E+00  0.00000000E+00  0.00000000E+00
  0.00000000E+00  0.00000000E+00  0.00000000E+00
  0.00000000E+00  0.00000000E+00  0.00000000E+00
  0.00000000E+00  0.00000000E+00  0.00000000E+00
  0.00000000E+00  0.00000000E+00  0.00000000E+00
  0.00000000E+00  0.00000000E+00  0.00000000E+00
  0.00000000E+00  0.00000000E+00  0.00000000E+00
  0.00000000E+00  0.00000000E+00  0.00000000E+00
  0.00000000E+00  0.00000000E+00  0.00000000E+00
  0.00000000E+00  0.00000000E+00  0.00000000E+00
  0.00000000E+00  0.00000000E+00  0.00000000E+00
  0.00000000E+00  0.00000000E+00  0.00000000E+00
  0.00000000E+00  0.00000000E+00  0.00000000E+00
  0.00000000E+00  0.00000000E+00  0.00000000E+00
  0.00000000E+00  0.00000000E+00  0.00000000E+00
  0.00000000E+00  0.00000000E+00  0.00000000E+00
  0.00000000E+00  0.00000000E+00  0.00000000E+00
