H1 Ir32 O72
1.0
9.089878 0.000000 0.000000
0.000000 11.104567 -0.079300
0.000000 0.000000 31.330060
H Ir O
1 32 72
direct
0.346471 0.939819 0.695202 H
0.263125 0.328811 0.375082 Ir
0.263143 0.828826 0.375091 Ir
0.763138 0.328825 0.375088 Ir
0.763128 0.828839 0.375088 Ir
0.987640 0.078983 0.375629 Ir
0.987623 0.579006 0.375598 Ir
0.487653 0.078989 0.375633 Ir
0.487865 0.578933 0.375503 Ir
0.248109 0.002300 0.457435 Ir
0.247916 0.502263 0.457230 Ir
0.748098 0.002287 0.457430 Ir
0.748126 0.502309 0.457433 Ir
0.001697 0.252983 0.457774 Ir
0.001693 0.752987 0.457768 Ir
0.501698 0.252990 0.457777 Ir
0.501748 0.752951 0.457732 Ir
0.250922 0.167047 0.541087 Ir
0.250704 0.667213 0.540947 Ir
0.750889 0.167076 0.541075 Ir
0.750905 0.667049 0.541087 Ir
0.001023 0.416666 0.542305 Ir
0.001006 0.916667 0.542309 Ir
0.500615 0.416885 0.542256 Ir
0.501007 0.916653 0.542308 Ir
0.247805 0.334033 0.627755 Ir
0.247814 0.834013 0.627750 Ir
0.747787 0.334026 0.627755 Ir
0.747768 0.833997 0.627764 Ir
0.005582 0.084992 0.627057 Ir
0.005594 0.584991 0.627054 Ir
0.505586 0.084988 0.627054 Ir
0.505575 0.584983 0.627051 Ir
0.346534 0.188135 0.351077 O
0.346477 0.688148 0.351066 O
0.846530 0.188137 0.351077 O
0.846481 0.688147 0.351069 O
0.095604 0.231876 0.399340 O
0.095602 0.731876 0.399340 O
0.595604 0.231877 0.399340 O
0.595616 0.731880 0.399337 O
0.152898 0.481781 0.399315 O
0.152917 0.981786 0.399322 O
0.652923 0.481785 0.399321 O
0.652916 0.981787 0.399322 O
0.402795 0.437007 0.350521 O
0.402812 0.937093 0.350549 O
0.902810 0.437048 0.350533 O
0.902810 0.937085 0.350547 O
0.342600 0.353189 0.433995 O
0.342613 0.853193 0.433997 O
0.842613 0.353192 0.433997 O
0.842611 0.853192 0.433997 O
0.095812 0.400539 0.484524 O
0.095809 0.900539 0.484527 O
0.595807 0.400541 0.484526 O
0.595802 0.900536 0.484529 O
0.153099 0.149052 0.484009 O
0.152994 0.649027 0.484000 O
0.653053 0.149031 0.484011 O
0.653087 0.649048 0.484007 O
0.404587 0.101711 0.433990 O
0.404167 0.602085 0.433463 O
0.904589 0.101711 0.433989 O
0.904591 0.601709 0.433992 O
0.346766 0.018053 0.515977 O
0.345871 0.518381 0.515541 O
0.846764 0.018057 0.515978 O
0.846764 0.518052 0.515977 O
0.095961 0.065956 0.566696 O
0.095963 0.565957 0.566693 O
0.595962 0.065955 0.566695 O
0.595950 0.565963 0.566694 O
0.157016 0.313632 0.566053 O
0.157007 0.813634 0.566053 O
0.656963 0.313639 0.566052 O
0.657013 0.813631 0.566053 O
0.404539 0.267991 0.515978 O
0.404550 0.767987 0.515975 O
0.904546 0.267986 0.515978 O
0.904546 0.767985 0.515979 O
0.344866 0.186947 0.600217 O
0.344898 0.686905 0.600176 O
0.844863 0.186948 0.600217 O
0.844867 0.686946 0.600217 O
0.095990 0.232290 0.649244 O
0.095991 0.732290 0.649243 O
0.595987 0.232289 0.649245 O
0.595984 0.732283 0.649245 O
0.150166 0.483288 0.647752 O
0.150162 0.983290 0.647754 O
0.650165 0.483288 0.647752 O
0.650167 0.983287 0.647752 O
0.402334 0.436730 0.600131 O
0.402342 0.936723 0.600136 O
0.902344 0.436723 0.600134 O
0.902341 0.936725 0.600140 O
0.343273 0.349030 0.678460 O
0.843270 0.349030 0.678460 O
0.843256 0.849025 0.678461 O
0.906853 0.093502 0.676122 O
0.906842 0.593496 0.676121 O
0.406840 0.093503 0.676121 O
0.406847 0.593494 0.676120 O
0.346471 0.849766 0.681505 O
