H1 Ir32 O73                             
   1.00000000000000     
     9.0898780000000006    0.0000000000000000    0.0000000000000000
     0.0000000000000000   11.1045669999999994   -0.0793000000000000
     0.0000000000000000    0.0000000000000000   31.3300599999999996
   H    Ir   O 
     1    32    73
Direct
  0.3786508820315849  0.7937664089042162  0.7353639655813132
  0.2633788275141359  0.3290289447229105  0.3751361561047364
  0.2635507798594746  0.8287003991492423  0.3751048480667977
  0.7633781950782627  0.3290399646344012  0.3751490445914098
  0.7633558246851967  0.8290596772116755  0.3751544380697552
  0.9885899422351272  0.0789397223691254  0.3758673723851026
  0.9885657767528123  0.5789890920068739  0.3758542134059338
  0.4885670099270408  0.0789383221956382  0.3758689556810165
  0.4896099910291752  0.5787445408023009  0.3755757105133280
  0.2475043738679266  0.0014208913695085  0.4577449159502396
  0.2480610167205679  0.5022158199003433  0.4572567955914469
  0.7474531630468035  0.0014373438977755  0.4577365478563529
  0.7476047263606386  0.5014847490851555  0.4577558905553791
  0.0017975814843681  0.2528719198096426  0.4577794446922219
  0.0017377680636284  0.7528732703359686  0.4577949159783639
  0.5017728006142946  0.2528239332159598  0.4577679270497693
  0.5018032935939312  0.7528492903523298  0.4577367235940741
  0.2510058218796170  0.1669727384792078  0.5411579942722933
  0.2510153681166163  0.6663164917780191  0.5411666250253877
  0.7510861978431086  0.1669391273476190  0.5411743691281189
  0.7509531046271832  0.6669004886280707  0.5412133661152722
  0.0013532216578951  0.4165493408271458  0.5422771797255242
  0.0008263985941547  0.9167778313254394  0.5423129293241864
  0.5019252700231908  0.4167147221508558  0.5419809055935738
  0.5010375814056621  0.9165495294804485  0.5423732034214780
  0.2484307229932019  0.3343832199720962  0.6276147536146952
  0.2435498328227892  0.8330355497015730  0.6263137962032619
  0.7479706625379002  0.3342045193676208  0.6277011815531602
  0.7485035468595743  0.8345233865239989  0.6276248899907096
  0.0057976461352249  0.0850982703607883  0.6270608956087725
  0.0054651353077768  0.5850191101335966  0.6270353364244480
  0.5055961719310035  0.0849694441199127  0.6270082503728612
  0.5031062267125270  0.5830298975518119  0.6271557507702655
  0.3500198580468863  0.1900186293741880  0.3511590289664371
  0.3500265299897745  0.6888812041746213  0.3510734635142438
  0.8500198121009382  0.1900183482833737  0.3511588434053539
  0.8500204024741148  0.6900231427632022  0.3511586730067261
  0.0957002015832824  0.2318545441189025  0.3993449200716139
  0.0956982729360707  0.7318490794377167  0.3993452781519855
  0.5956974087094159  0.2318528274508866  0.3993452047801040
  0.5957230383152434  0.7318543830024309  0.3993388873099095
  0.1529812466576448  0.4817449893531631  0.3993214108950299
  0.1530556480156453  0.9817409322967044  0.3993352609738319
  0.6531222243568757  0.4817208255787820  0.3993332427614637
  0.6530353778335306  0.9817491282411865  0.3993373377863561
  0.4034000651992016  0.4382108224820910  0.3510338456440745
  0.4034064249704561  0.9382213825222094  0.3510463618166382
  0.9034068397221076  0.4382294353946523  0.3510466556366402
  0.9034087268636469  0.9382313505576210  0.3510471753979243
  0.3426780765682576  0.3531874439012104  0.4339992089051496
  0.3426989825347140  0.8531846064479641  0.4340007520489179
  0.8427002264214484  0.3531849112816474  0.4340025187130119
  0.8426883454955297  0.8531889896401030  0.4340018426048164
  0.0958322311266853  0.4005332786131517  0.4845232647283310
  0.0957831685504827  0.9005119867934992  0.4845336819686197
  0.5958116094654036  0.4005076344865205  0.4845202642016755
  0.5957745161045999  0.9005044557408211  0.4845351614898867
  0.1531331625276640  0.1490142630988860  0.4840213314209730
  0.1531067626689692  0.6490395116044066  0.4840039779613824
  0.6531260692536391  0.1490103144158418  0.4840200136120417
  0.6531315515117140  0.6490133646917151  0.4840220257129929
  0.4045348982575354  0.1016889671566423  0.4340084528698925
  0.4042248238384911  0.6020782865147075  0.4334465150712780
  0.9045335678089744  0.1016977291813703  0.4340102784623034
  0.9045377717400561  0.6017011300101152  0.4340101806080919
  0.3468011429740233  0.0180244319260792  0.5159932850214290
  0.3459116758506016  0.5183173004604830  0.5155433817908922
  0.8468007110593317  0.0180160655880436  0.5159886958211765
  0.8468031874248080  0.5180193521194861  0.5159944012265597
  0.0959979854776203  0.0659206280983071  0.5666993350988314
  0.0960155794382009  0.5658605779982872  0.5666984194295407
  0.5959964201395812  0.0659210464482207  0.5667009269972402
  0.5959997971688074  0.5659429713718410  0.5666915794324064
  0.1572475005036099  0.3136252319559369  0.5660493685171651
  0.1572262590007556  0.8136461056107245  0.5660550161876187
  0.6572531391004395  0.3136292987748205  0.5660505600493304
  0.6572550654388244  0.8136361242518260  0.5660509045386346
  0.4046015715627942  0.2679658108167788  0.5159769849661096
  0.4045615901588901  0.7679476429413552  0.5159827625188694
  0.9045702732940462  0.2679613349495756  0.5159805666313285
  0.9045743084127067  0.7679571676621126  0.5159808250145688
  0.3449468228508989  0.1868282973796523  0.6001876485810376
  0.3449687631795832  0.6867724914644039  0.6001783275188984
  0.8449413884949281  0.1868305376754554  0.6001648937824883
  0.8449507560565338  0.6868339842252369  0.6001878140686068
  0.0970144686737001  0.2324788816995592  0.6487978956951271
  0.0961607793478434  0.7320362740488822  0.6492894999394234
  0.5960319087483805  0.2322678480577981  0.6492461932818498
  0.5968938067204654  0.7319616190298772  0.6486862448494761
  0.1501676978751061  0.4832619689165798  0.6477427013844322
  0.1502222243387465  0.9832522062384617  0.6477498600778359
  0.6501870343069442  0.4832958205167116  0.6477593923907142
  0.6501773906101833  0.9832896361958262  0.6477611140971655
  0.4029337753267777  0.4362266444909165  0.5995785578630790
  0.4024209551049071  0.9365187564757274  0.6002194108003318
  0.9023635970391571  0.4366946319883541  0.6001244797571074
  0.9023512235463048  0.9367109512558086  0.6001452225797841
  0.3433864727824723  0.3490958271440984  0.6784548663261357
  0.8433023908614167  0.3490167731199623  0.6784591748693062
  0.8433836396083190  0.8490161962972437  0.6784622426140859
  0.9068683089650211  0.0935047663532580  0.6761271043125312
  0.9068690688792082  0.5935131311434938  0.6761330215964831
  0.4068997723916124  0.0935565933665579  0.6761360895825066
  0.3927921869570294  0.5714196057465804  0.6738834043101949
  0.3356992909313805  0.8587454684358581  0.6823103227567251
  0.3890733654366648  0.7577931414381902  0.7069711504140227
 
  0.00000000E+00  0.00000000E+00  0.00000000E+00
  0.00000000E+00  0.00000000E+00  0.00000000E+00
  0.00000000E+00  0.00000000E+00  0.00000000E+00
  0.00000000E+00  0.00000000E+00  0.00000000E+00
  0.00000000E+00  0.00000000E+00  0.00000000E+00
  0.00000000E+00  0.00000000E+00  0.00000000E+00
  0.00000000E+00  0.00000000E+00  0.00000000E+00
  0.00000000E+00  0.00000000E+00  0.00000000E+00
  0.00000000E+00  0.00000000E+00  0.00000000E+00
  0.00000000E+00  0.00000000E+00  0.00000000E+00
  0.00000000E+00  0.00000000E+00  0.00000000E+00
  0.00000000E+00  0.00000000E+00  0.00000000E+00
  0.00000000E+00  0.00000000E+00  0.00000000E+00
  0.00000000E+00  0.00000000E+00  0.00000000E+00
  0.00000000E+00  0.00000000E+00  0.00000000E+00
  0.00000000E+00  0.00000000E+00  0.00000000E+00
  0.00000000E+00  0.00000000E+00  0.00000000E+00
  0.00000000E+00  0.00000000E+00  0.00000000E+00
  0.00000000E+00  0.00000000E+00  0.00000000E+00
  0.00000000E+00  0.00000000E+00  0.00000000E+00
  0.00000000E+00  0.00000000E+00  0.00000000E+00
  0.00000000E+00  0.00000000E+00  0.00000000E+00
  0.00000000E+00  0.00000000E+00  0.00000000E+00
  0.00000000E+00  0.00000000E+00  0.00000000E+00
  0.00000000E+00  0.00000000E+00  0.00000000E+00
  0.00000000E+00  0.00000000E+00  0.00000000E+00
  0.00000000E+00  0.00000000E+00  0.00000000E+00
  0.00000000E+00  0.00000000E+00  0.00000000E+00
  0.00000000E+00  0.00000000E+00  0.00000000E+00
  0.00000000E+00  0.00000000E+00  0.00000000E+00
  0.00000000E+00  0.00000000E+00  0.00000000E+00
  0.00000000E+00  0.00000000E+00  0.00000000E+00
  0.00000000E+00  0.00000000E+00  0.00000000E+00
  0.00000000E+00  0.00000000E+00  0.00000000E+00
  0.00000000E+00  0.00000000E+00  0.00000000E+00
  0.00000000E+00  0.00000000E+00  0.00000000E+00
  0.00000000E+00  0.00000000E+00  0.00000000E+00
  0.00000000E+00  0.00000000E+00  0.00000000E+00
  0.00000000E+00  0.00000000E+00  0.00000000E+00
  0.00000000E+00  0.00000000E+00  0.00000000E+00
  0.00000000E+00  0.00000000E+00  0.00000000E+00
  0.00000000E+00  0.00000000E+00  0.00000000E+00
  0.00000000E+00  0.00000000E+00  0.00000000E+00
  0.00000000E+00  0.00000000E+00  0.00000000E+00
  0.00000000E+00  0.00000000E+00  0.00000000E+00
  0.00000000E+00  0.00000000E+00  0.00000000E+00
  0.00000000E+00  0.00000000E+00  0.00000000E+00
  0.00000000E+00  0.00000000E+00  0.00000000E+00
  0.00000000E+00  0.00000000E+00  0.00000000E+00
  0.00000000E+00  0.00000000E+00  0.00000000E+00
  0.00000000E+00  0.00000000E+00  0.00000000E+00
  0.00000000E+00  0.00000000E+00  0.00000000E+00
  0.00000000E+00  0.00000000E+00  0.00000000E+00
  0.00000000E+00  0.00000000E+00  0.00000000E+00
  0.00000000E+00  0.00000000E+00  0.00000000E+00
  0.00000000E+00  0.00000000E+00  0.00000000E+00
  0.00000000E+00  0.00000000E+00  0.00000000E+00
  0.00000000E+00  0.00000000E+00  0.00000000E+00
  0.00000000E+00  0.00000000E+00  0.00000000E+00
  0.00000000E+00  0.00000000E+00  0.00000000E+00
  0.00000000E+00  0.00000000E+00  0.00000000E+00
  0.00000000E+00  0.00000000E+00  0.00000000E+00
  0.00000000E+00  0.00000000E+00  0.00000000E+00
  0.00000000E+00  0.00000000E+00  0.00000000E+00
  0.00000000E+00  0.00000000E+00  0.00000000E+00
  0.00000000E+00  0.00000000E+00  0.00000000E+00
  0.00000000E+00  0.00000000E+00  0.00000000E+00
  0.00000000E+00  0.00000000E+00  0.00000000E+00
  0.00000000E+00  0.00000000E+00  0.00000000E+00
  0.00000000E+00  0.00000000E+00  0.00000000E+00
  0.00000000E+00  0.00000000E+00  0.00000000E+00
  0.00000000E+00  0.00000000E+00  0.00000000E+00
  0.00000000E+00  0.00000000E+00  0.00000000E+00
  0.00000000E+00  0.00000000E+00  0.00000000E+00
  0.00000000E+00  0.00000000E+00  0.00000000E+00
  0.00000000E+00  0.00000000E+00  0.00000000E+00
  0.00000000E+00  0.00000000E+00  0.00000000E+00
  0.00000000E+00  0.00000000E+00  0.00000000E+00
  0.00000000E+00  0.00000000E+00  0.00000000E+00
  0.00000000E+00  0.00000000E+00  0.00000000E+00
  0.00000000E+00  0.00000000E+00  0.00000000E+00
  0.00000000E+00  0.00000000E+00  0.00000000E+00
  0.00000000E+00  0.00000000E+00  0.00000000E+00
  0.00000000E+00  0.00000000E+00  0.00000000E+00
  0.00000000E+00  0.00000000E+00  0.00000000E+00
  0.00000000E+00  0.00000000E+00  0.00000000E+00
  0.00000000E+00  0.00000000E+00  0.00000000E+00
  0.00000000E+00  0.00000000E+00  0.00000000E+00
  0.00000000E+00  0.00000000E+00  0.00000000E+00
  0.00000000E+00  0.00000000E+00  0.00000000E+00
  0.00000000E+00  0.00000000E+00  0.00000000E+00
  0.00000000E+00  0.00000000E+00  0.00000000E+00
  0.00000000E+00  0.00000000E+00  0.00000000E+00
  0.00000000E+00  0.00000000E+00  0.00000000E+00
  0.00000000E+00  0.00000000E+00  0.00000000E+00
  0.00000000E+00  0.00000000E+00  0.00000000E+00
  0.00000000E+00  0.00000000E+00  0.00000000E+00
  0.00000000E+00  0.00000000E+00  0.00000000E+00
  0.00000000E+00  0.00000000E+00  0.00000000E+00
  0.00000000E+00  0.00000000E+00  0.00000000E+00
  0.00000000E+00  0.00000000E+00  0.00000000E+00
  0.00000000E+00  0.00000000E+00  0.00000000E+00
  0.00000000E+00  0.00000000E+00  0.00000000E+00
  0.00000000E+00  0.00000000E+00  0.00000000E+00
  0.00000000E+00  0.00000000E+00  0.00000000E+00
  0.00000000E+00  0.00000000E+00  0.00000000E+00
