Ir32 O72                                
   1.00000000000000     
     9.0898780000000006    0.0000000000000000    0.0000000000000000
     0.0000000000000000   11.1045669999999994   -0.0793000000000000
     0.0000000000000000    0.0000000000000000   31.3300599999999996
   Ir   O 
    32    72
Direct
  0.2637014467358061  0.3283496126589578  0.3749940003637728
  0.2637067326335340  0.8283679568839616  0.3749963664367086
  0.7636819307654334  0.3283583615680539  0.3749961477595030
  0.7636745060088880  0.8283647149364317  0.3749978929693759
  0.9894385649448146  0.0777696740797294  0.3747799358171449
  0.9894412841802038  0.5777680331944633  0.3747800769511626
  0.4895724865548842  0.0777870788644392  0.3747877689923931
  0.4895734059960114  0.5778006043939578  0.3747918020179952
  0.2483830805905522  0.0021315570757678  0.4572378932872935
  0.2483743417876079  0.5020426880259313  0.4572042335215346
  0.7483628019498347  0.0020805678467445  0.4572349862279360
  0.7483835957397247  0.5020660663402111  0.4572307094535477
  0.0021604050121098  0.2526366710193848  0.4575369700927122
  0.0021468250187853  0.7523600178167751  0.4575501853638723
  0.5019907847645781  0.2525704411758379  0.4576017530094182
  0.5020496155387566  0.7525572493660475  0.4576016220444377
  0.2492159747809118  0.1671450413902799  0.5415410549162413
  0.2503265349844147  0.6674077178538351  0.5413656940354931
  0.7504899755495442  0.1681250427923767  0.5411023341771800
  0.7492099016570695  0.6672080410610792  0.5415278190532774
  0.0007080092085973  0.4170748071767815  0.5421739483859911
 -0.0001471331470678  0.9148707730476057  0.5419556379794832
  0.5006085496092718  0.4167670580192053  0.5422371133508842
  0.4999944490604171  0.9171716381503878  0.5422567162271558
  0.2474359188534717  0.3336204899787268  0.6279029263540885
  0.2472968897162035  0.8336886291449066  0.6279362321871601
  0.7474620113040020  0.3335950581934726  0.6278884949538773
  0.7474947790453355  0.8337211139681604  0.6278776243225848
  0.0052420513149356  0.0849036561702013  0.6271840523270948
  0.0052243226809216  0.5849551421662160  0.6272137401487252
  0.5052318545138542  0.0850412545494437  0.6272153057873465
  0.5052253836666679  0.5849681924039225  0.6272222708401626
  0.3465992599473827  0.1880251480726070  0.3510538383773013
  0.3465978674724207  0.6880265513329574  0.3510538172379838
  0.8465850890367086  0.1880261099807195  0.3510516050760418
  0.8465846019296033  0.6880266991194002  0.3510515650271988
  0.0957303811912536  0.2317851040773355  0.3993152858010399
  0.0957290016937112  0.7317878682650992  0.3993158626059907
  0.5957092799382898  0.2318003082212114  0.3993186350357403
  0.5957105385954734  0.7317989159488381  0.3993192286175372
  0.1532099829681440  0.4815647375689222  0.3992354546548422
  0.1532123208424934  0.9815643506774847  0.3992374085024350
  0.6532166324164291  0.4815629521982260  0.3992370629870269
  0.6532119819586436  0.9815630130574697  0.3992349483047216
  0.4042876719732274  0.4347399715546371  0.3493610180705386
  0.4042824703443018  0.9347365832690322  0.3493595696111231
  0.9042881233512082  0.4346840625250455  0.3493544149515063
  0.9042877636201325  0.9346837277196377  0.3493545358280985
  0.3427260881036013  0.3531567800517351  0.4339845949203142
  0.3427251918196818  0.8531589010707703  0.4339851782406289
  0.8427203586892605  0.3531592495055637  0.4339832560964718
  0.8427349123785094  0.8531553955052658  0.4339848693115013
  0.0958405199857388  0.4005030078884257  0.4845094501802031
  0.0958146191285844  0.9004400409743883  0.4844949086962106
  0.5958255922493007  0.4004935081684564  0.4845119303673894
  0.5958186887889608  0.9004955874463479  0.4845150930018686
  0.1531278284670367  0.1489966037876825  0.4839970007986790
  0.1531800300650658  0.6489709344644620  0.4839922378234042
  0.6531326310526444  0.1490010517388648  0.4839826274271860
  0.6531159594217871  0.6489754643167174  0.4839985967123948
  0.4042994801292528  0.1019226277653447  0.4333179541094243
  0.4043050827997944  0.6019262443605959  0.4333179010864018
  0.9042989317682749  0.1019168965649762  0.4333137117544025
  0.9042869378717939  0.6019072031382092  0.4333123659403945
  0.3466506972508319  0.0180244231067989  0.5159290393938604
  0.3467254187529407  0.5179802104958338  0.5159309199707076
  0.8467121562257350  0.0179586153279586  0.5159195636111426
  0.8466955649966362  0.5180144794567718  0.5159338922155056
  0.0958672063121197  0.0649984503859780  0.5667073021431511
  0.0960669536684802  0.5652940435074325  0.5667111277224114
  0.5959719058031395  0.0658926673621401  0.5666908043639036
  0.5959858054754602  0.5651781106438455  0.5667275169639986
  0.1532519897127378  0.3155464616946643  0.5673864190448703
  0.1532819225842674  0.8154130808495434  0.5673744257559085
  0.6533021847150684  0.3155677230318762  0.5673772915045942
  0.6531658314628326  0.8155748736968732  0.5673863206425191
  0.4045199451709018  0.2678805109691162  0.5159843291631405
  0.4045522705304569  0.7679110996953895  0.5159778277373188
  0.9040643630371652  0.2694147359597491  0.5154804486807288
  0.9044694038644392  0.7677773903620163  0.5159815834227804
  0.3429668962220977  0.1865323413211928  0.6006293541011615
  0.3430080853798387  0.6865318921302014  0.6006281406790274
  0.8429994440158917  0.1865327235825705  0.6006236422905226
  0.8429751860495603  0.6865282341263943  0.6006291199462950
  0.0959566651094032  0.2322219818297833  0.6492551155108469
  0.0959533142181744  0.7322148190505731  0.6492563150219196
  0.5959919441942241  0.2322346120105280  0.6492526630838730
  0.5959831650439430  0.7322315701013169  0.6492520134005840
  0.1501607141368944  0.4832718555871847  0.6477442131157478
  0.1501514669366157  0.9832749191480082  0.6477466833984400
  0.6501571477475502  0.4832717448398278  0.6477448694451412
  0.6501518054315084  0.9832726671946583  0.6477435495212696
  0.4041410635345307  0.4352972752866071  0.6000165881809930
  0.4023330108812774  0.9366893910560086  0.6001351217314032
  0.9041565467203448  0.4352982649721870  0.6000082703424676
  0.9041267910465262  0.9352073984768027  0.5999647642378378
  0.3435722529245772  0.3488642691871339  0.6784313894779374
  0.3435683441770289  0.8488633400520438  0.6784332252570278
  0.8435394562645218  0.3488844851457976  0.6784338485319954
  0.8435383022736846  0.8488890534053672  0.6784344562591350
  0.9070768489748752  0.0998970841286637  0.6771838924095014
  0.9070746278292291  0.5998964247304975  0.6771850718502646
  0.4070756478304683  0.0998971696596902  0.6771860697103158
  0.4070745524751849  0.5998970547812308  0.6771855736481541
 
  0.00000000E+00  0.00000000E+00  0.00000000E+00
  0.00000000E+00  0.00000000E+00  0.00000000E+00
  0.00000000E+00  0.00000000E+00  0.00000000E+00
  0.00000000E+00  0.00000000E+00  0.00000000E+00
  0.00000000E+00  0.00000000E+00  0.00000000E+00
  0.00000000E+00  0.00000000E+00  0.00000000E+00
  0.00000000E+00  0.00000000E+00  0.00000000E+00
  0.00000000E+00  0.00000000E+00  0.00000000E+00
  0.00000000E+00  0.00000000E+00  0.00000000E+00
  0.00000000E+00  0.00000000E+00  0.00000000E+00
  0.00000000E+00  0.00000000E+00  0.00000000E+00
  0.00000000E+00  0.00000000E+00  0.00000000E+00
  0.00000000E+00  0.00000000E+00  0.00000000E+00
  0.00000000E+00  0.00000000E+00  0.00000000E+00
  0.00000000E+00  0.00000000E+00  0.00000000E+00
  0.00000000E+00  0.00000000E+00  0.00000000E+00
  0.00000000E+00  0.00000000E+00  0.00000000E+00
  0.00000000E+00  0.00000000E+00  0.00000000E+00
  0.00000000E+00  0.00000000E+00  0.00000000E+00
  0.00000000E+00  0.00000000E+00  0.00000000E+00
  0.00000000E+00  0.00000000E+00  0.00000000E+00
  0.00000000E+00  0.00000000E+00  0.00000000E+00
  0.00000000E+00  0.00000000E+00  0.00000000E+00
  0.00000000E+00  0.00000000E+00  0.00000000E+00
  0.00000000E+00  0.00000000E+00  0.00000000E+00
  0.00000000E+00  0.00000000E+00  0.00000000E+00
  0.00000000E+00  0.00000000E+00  0.00000000E+00
  0.00000000E+00  0.00000000E+00  0.00000000E+00
  0.00000000E+00  0.00000000E+00  0.00000000E+00
  0.00000000E+00  0.00000000E+00  0.00000000E+00
  0.00000000E+00  0.00000000E+00  0.00000000E+00
  0.00000000E+00  0.00000000E+00  0.00000000E+00
  0.00000000E+00  0.00000000E+00  0.00000000E+00
  0.00000000E+00  0.00000000E+00  0.00000000E+00
  0.00000000E+00  0.00000000E+00  0.00000000E+00
  0.00000000E+00  0.00000000E+00  0.00000000E+00
  0.00000000E+00  0.00000000E+00  0.00000000E+00
  0.00000000E+00  0.00000000E+00  0.00000000E+00
  0.00000000E+00  0.00000000E+00  0.00000000E+00
  0.00000000E+00  0.00000000E+00  0.00000000E+00
  0.00000000E+00  0.00000000E+00  0.00000000E+00
  0.00000000E+00  0.00000000E+00  0.00000000E+00
  0.00000000E+00  0.00000000E+00  0.00000000E+00
  0.00000000E+00  0.00000000E+00  0.00000000E+00
  0.00000000E+00  0.00000000E+00  0.00000000E+00
  0.00000000E+00  0.00000000E+00  0.00000000E+00
  0.00000000E+00  0.00000000E+00  0.00000000E+00
  0.00000000E+00  0.00000000E+00  0.00000000E+00
  0.00000000E+00  0.00000000E+00  0.00000000E+00
  0.00000000E+00  0.00000000E+00  0.00000000E+00
  0.00000000E+00  0.00000000E+00  0.00000000E+00
  0.00000000E+00  0.00000000E+00  0.00000000E+00
  0.00000000E+00  0.00000000E+00  0.00000000E+00
  0.00000000E+00  0.00000000E+00  0.00000000E+00
  0.00000000E+00  0.00000000E+00  0.00000000E+00
  0.00000000E+00  0.00000000E+00  0.00000000E+00
  0.00000000E+00  0.00000000E+00  0.00000000E+00
  0.00000000E+00  0.00000000E+00  0.00000000E+00
  0.00000000E+00  0.00000000E+00  0.00000000E+00
  0.00000000E+00  0.00000000E+00  0.00000000E+00
  0.00000000E+00  0.00000000E+00  0.00000000E+00
  0.00000000E+00  0.00000000E+00  0.00000000E+00
  0.00000000E+00  0.00000000E+00  0.00000000E+00
  0.00000000E+00  0.00000000E+00  0.00000000E+00
  0.00000000E+00  0.00000000E+00  0.00000000E+00
  0.00000000E+00  0.00000000E+00  0.00000000E+00
  0.00000000E+00  0.00000000E+00  0.00000000E+00
  0.00000000E+00  0.00000000E+00  0.00000000E+00
  0.00000000E+00  0.00000000E+00  0.00000000E+00
  0.00000000E+00  0.00000000E+00  0.00000000E+00
  0.00000000E+00  0.00000000E+00  0.00000000E+00
  0.00000000E+00  0.00000000E+00  0.00000000E+00
  0.00000000E+00  0.00000000E+00  0.00000000E+00
  0.00000000E+00  0.00000000E+00  0.00000000E+00
  0.00000000E+00  0.00000000E+00  0.00000000E+00
  0.00000000E+00  0.00000000E+00  0.00000000E+00
  0.00000000E+00  0.00000000E+00  0.00000000E+00
  0.00000000E+00  0.00000000E+00  0.00000000E+00
  0.00000000E+00  0.00000000E+00  0.00000000E+00
  0.00000000E+00  0.00000000E+00  0.00000000E+00
  0.00000000E+00  0.00000000E+00  0.00000000E+00
  0.00000000E+00  0.00000000E+00  0.00000000E+00
  0.00000000E+00  0.00000000E+00  0.00000000E+00
  0.00000000E+00  0.00000000E+00  0.00000000E+00
  0.00000000E+00  0.00000000E+00  0.00000000E+00
  0.00000000E+00  0.00000000E+00  0.00000000E+00
  0.00000000E+00  0.00000000E+00  0.00000000E+00
  0.00000000E+00  0.00000000E+00  0.00000000E+00
  0.00000000E+00  0.00000000E+00  0.00000000E+00
  0.00000000E+00  0.00000000E+00  0.00000000E+00
  0.00000000E+00  0.00000000E+00  0.00000000E+00
  0.00000000E+00  0.00000000E+00  0.00000000E+00
  0.00000000E+00  0.00000000E+00  0.00000000E+00
  0.00000000E+00  0.00000000E+00  0.00000000E+00
  0.00000000E+00  0.00000000E+00  0.00000000E+00
  0.00000000E+00  0.00000000E+00  0.00000000E+00
  0.00000000E+00  0.00000000E+00  0.00000000E+00
  0.00000000E+00  0.00000000E+00  0.00000000E+00
  0.00000000E+00  0.00000000E+00  0.00000000E+00
  0.00000000E+00  0.00000000E+00  0.00000000E+00
  0.00000000E+00  0.00000000E+00  0.00000000E+00
  0.00000000E+00  0.00000000E+00  0.00000000E+00
  0.00000000E+00  0.00000000E+00  0.00000000E+00
  0.00000000E+00  0.00000000E+00  0.00000000E+00
