Pd64                                    
    1.000000000000000     
    11.0798020163988351    0.0000000000000000    0.0000000000000007
    -0.0000000000000007   11.0798020163988333    0.0000000000000007
     0.0000000000000000    0.0000000000000000   39.1730156999999934
   Pd
    64
Selective dynamics
Direct
  0.0000001961450421  0.2500001551188001  0.5252761341422975   T   T   T
  0.0000002977589571  0.5000001369439310  0.5252761122960100   T   T   T
  0.0000002734538853  0.7499998903053123  0.5252760567334966   T   T   T
  0.0000001599078933 -0.0000001905695189  0.5252760494365225   T   T   T
  0.2500002647239655  0.2500002497195709  0.5252760998634456   T   T   T
  0.2500001957833687  0.5000002496268368  0.5252761076351272   T   T   T
  0.2500002780037979  0.7499997497909718  0.5252761004539154   T   T   T
  0.2500002774777458 -0.0000002451340362  0.5252760815823357   T   T   T
  0.4999998576054192  0.2500000579761456  0.5252761407469025   T   T   T
  0.4999997847704332  0.5000001718904656  0.5252761432132591   T   T   T
  0.4999998418677236  0.7499999793843244  0.5252762120535865   T   T   T
  0.4999999214703303 -0.0000002079649580  0.5252761985879727   T   T   T
  0.7499996806466283  0.2500001593333032  0.5252761767903473   T   T   T
  0.7499997464189567  0.5000001331151193  0.5252761562590704   T   T   T
  0.7499996219913404  0.7499999386394797  0.5252761567273669   T   T   T
  0.7499996255103617 -0.0000002315041809  0.5252761794758386   T   T   T
  0.1250001244993860  0.1249999878048800  0.5748310161079668   T   T   T
  0.1250001116462545  0.3750001747334337  0.5748310343141361   T   T   T
  0.1250002301725887  0.6250000414100160  0.5748310382854475   T   T   T
  0.1250001981002949  0.8749997942848571  0.5748310209594721   T   T   T
  0.3750002567542526  0.1249999814377769  0.5748310313826790   T   T   T
  0.3750001458383965  0.3750000866543495  0.5748310311998668   T   T   T
  0.3750000576107824  0.6250000607786587  0.5748310187850100   T   T   T
  0.3750002358305380  0.8749998720500687  0.5748310160139939   T   T   T
  0.6249998240639191  0.1249999035090493  0.5748310237439649   T   T   T
  0.6249998524402350  0.3750000095251340  0.5748310281731501   T   T   T
  0.6249997328884147  0.6250000904813462  0.5748309360693401   T   T   T
  0.6249997432851463  0.8750000066861462  0.5748309395837373   T   T   T
  0.8749997787741510  0.1250000426429050  0.5748310916841345   T   T   T
  0.8749998448590937  0.3750000021039965  0.5748310214538964   T   T   T
  0.8749999302141032  0.6249999871461096  0.5748310134186364   T   T   T
  0.8749998090308979  0.8749999866944398  0.5748310839900004   T   T   T
  0.2500000000000000  0.0000000000000000  0.4249999999999972   F   F   F
  0.2500000000000000  0.2500000000000000  0.4249999999999972   F   F   F
  0.2500000000000000  0.5000000000000000  0.4249999999999972   F   F   F
  0.2500000000000000  0.7500000000000000  0.4249999999999972   F   F   F
  0.5000000000000000  0.0000000000000000  0.4249999999999972   F   F   F
  0.5000000000000000  0.2500000000000000  0.4249999999999972   F   F   F
  0.5000000000000000  0.5000000000000000  0.4249999999999972   F   F   F
  0.5000000000000000  0.7500000000000000  0.4249999999999972   F   F   F
  0.7500000000000000  0.0000000000000000  0.4249999999999972   F   F   F
  0.7500000000000000  0.2500000000000000  0.4249999999999972   F   F   F
  0.7500000000000000  0.5000000000000000  0.4249999999999972   F   F   F
  0.7500000000000000  0.7500000000000000  0.4249999999999972   F   F   F
  0.0000000000000000  0.0000000000000000  0.4249999999999972   F   F   F
  0.0000000000000000  0.2500000000000000  0.4249999999999972   F   F   F
  0.0000000000000000  0.5000000000000000  0.4249999999999972   F   F   F
  0.0000000000000000  0.7500000000000000  0.4249999999999972   F   F   F
  0.1250000000000000  0.1250000000000000  0.4750000000000014   F   F   F
  0.1250000000000000  0.3750000000000000  0.4750000000000014   F   F   F
  0.1250000000000000  0.6250000000000000  0.4750000000000014   F   F   F
  0.1250000000000000  0.8750000000000000  0.4750000000000014   F   F   F
  0.3750000000000000  0.1250000000000000  0.4750000000000014   F   F   F
  0.3750000000000000  0.3750000000000000  0.4750000000000014   F   F   F
  0.3750000000000000  0.6250000000000000  0.4750000000000014   F   F   F
  0.3750000000000000  0.8750000000000000  0.4750000000000014   F   F   F
  0.6250000000000000  0.1250000000000000  0.4750000000000014   F   F   F
  0.6250000000000000  0.3750000000000000  0.4750000000000014   F   F   F
  0.6250000000000000  0.6250000000000000  0.4750000000000014   F   F   F
  0.6250000000000000  0.8750000000000000  0.4750000000000014   F   F   F
  0.8750000000000000  0.1250000000000000  0.4750000000000014   F   F   F
  0.8750000000000000  0.3750000000000000  0.4750000000000014   F   F   F
  0.8750000000000000  0.6250000000000000  0.4750000000000014   F   F   F
  0.8750000000000000  0.8750000000000000  0.4750000000000014   F   F   F
 
  0.00000000E+00  0.00000000E+00  0.00000000E+00
  0.00000000E+00  0.00000000E+00  0.00000000E+00
  0.00000000E+00  0.00000000E+00  0.00000000E+00
  0.00000000E+00  0.00000000E+00  0.00000000E+00
  0.00000000E+00  0.00000000E+00  0.00000000E+00
  0.00000000E+00  0.00000000E+00  0.00000000E+00
  0.00000000E+00  0.00000000E+00  0.00000000E+00
  0.00000000E+00  0.00000000E+00  0.00000000E+00
  0.00000000E+00  0.00000000E+00  0.00000000E+00
  0.00000000E+00  0.00000000E+00  0.00000000E+00
  0.00000000E+00  0.00000000E+00  0.00000000E+00
  0.00000000E+00  0.00000000E+00  0.00000000E+00
  0.00000000E+00  0.00000000E+00  0.00000000E+00
  0.00000000E+00  0.00000000E+00  0.00000000E+00
  0.00000000E+00  0.00000000E+00  0.00000000E+00
  0.00000000E+00  0.00000000E+00  0.00000000E+00
  0.00000000E+00  0.00000000E+00  0.00000000E+00
  0.00000000E+00  0.00000000E+00  0.00000000E+00
  0.00000000E+00  0.00000000E+00  0.00000000E+00
  0.00000000E+00  0.00000000E+00  0.00000000E+00
  0.00000000E+00  0.00000000E+00  0.00000000E+00
  0.00000000E+00  0.00000000E+00  0.00000000E+00
  0.00000000E+00  0.00000000E+00  0.00000000E+00
  0.00000000E+00  0.00000000E+00  0.00000000E+00
  0.00000000E+00  0.00000000E+00  0.00000000E+00
  0.00000000E+00  0.00000000E+00  0.00000000E+00
  0.00000000E+00  0.00000000E+00  0.00000000E+00
  0.00000000E+00  0.00000000E+00  0.00000000E+00
  0.00000000E+00  0.00000000E+00  0.00000000E+00
  0.00000000E+00  0.00000000E+00  0.00000000E+00
  0.00000000E+00  0.00000000E+00  0.00000000E+00
  0.00000000E+00  0.00000000E+00  0.00000000E+00
  0.00000000E+00  0.00000000E+00  0.00000000E+00
  0.00000000E+00  0.00000000E+00  0.00000000E+00
  0.00000000E+00  0.00000000E+00  0.00000000E+00
  0.00000000E+00  0.00000000E+00  0.00000000E+00
  0.00000000E+00  0.00000000E+00  0.00000000E+00
  0.00000000E+00  0.00000000E+00  0.00000000E+00
  0.00000000E+00  0.00000000E+00  0.00000000E+00
  0.00000000E+00  0.00000000E+00  0.00000000E+00
  0.00000000E+00  0.00000000E+00  0.00000000E+00
  0.00000000E+00  0.00000000E+00  0.00000000E+00
  0.00000000E+00  0.00000000E+00  0.00000000E+00
  0.00000000E+00  0.00000000E+00  0.00000000E+00
  0.00000000E+00  0.00000000E+00  0.00000000E+00
  0.00000000E+00  0.00000000E+00  0.00000000E+00
  0.00000000E+00  0.00000000E+00  0.00000000E+00
  0.00000000E+00  0.00000000E+00  0.00000000E+00
  0.00000000E+00  0.00000000E+00  0.00000000E+00
  0.00000000E+00  0.00000000E+00  0.00000000E+00
  0.00000000E+00  0.00000000E+00  0.00000000E+00
  0.00000000E+00  0.00000000E+00  0.00000000E+00
  0.00000000E+00  0.00000000E+00  0.00000000E+00
  0.00000000E+00  0.00000000E+00  0.00000000E+00
  0.00000000E+00  0.00000000E+00  0.00000000E+00
  0.00000000E+00  0.00000000E+00  0.00000000E+00
  0.00000000E+00  0.00000000E+00  0.00000000E+00
  0.00000000E+00  0.00000000E+00  0.00000000E+00
  0.00000000E+00  0.00000000E+00  0.00000000E+00
  0.00000000E+00  0.00000000E+00  0.00000000E+00
  0.00000000E+00  0.00000000E+00  0.00000000E+00
  0.00000000E+00  0.00000000E+00  0.00000000E+00
  0.00000000E+00  0.00000000E+00  0.00000000E+00
  0.00000000E+00  0.00000000E+00  0.00000000E+00
