Ir32 H32 C8 O72
1.0
9.089878 0.000000 0.000000
0.000000 11.104567 -0.079300
0.000000 0.000000 31.330060
Ir O H C O H C O H C O H C O H C O H C O H C O H C O
32 64 4 1 1 4 1 1 4 1 1 4 1 1 4 1 1 4 1 1 4 1 1 4 1 1
direct
0.263682 0.328328 0.375046 Ir
0.263682 0.828334 0.375046 Ir
0.763684 0.328328 0.375046 Ir
0.763680 0.828332 0.375046 Ir
-0.010223 0.077831 0.374885 Ir
-0.010223 0.577833 0.374884 Ir
0.489778 0.077831 0.374885 Ir
0.489773 0.577832 0.374884 Ir
0.248282 0.001960 0.457272 Ir
0.248279 0.501958 0.457272 Ir
0.748279 0.001959 0.457272 Ir
0.748279 0.501959 0.457272 Ir
0.002752 0.251623 0.457592 Ir
0.002751 0.751622 0.457592 Ir
0.502751 0.251625 0.457592 Ir
0.502750 0.751624 0.457592 Ir
0.251729 0.164706 0.542728 Ir
0.251728 0.664707 0.542728 Ir
0.751728 0.164707 0.542728 Ir
0.751728 0.664707 0.542728 Ir
-0.002748 0.415041 0.542409 Ir
-0.002745 0.915038 0.542409 Ir
0.497251 0.415042 0.542409 Ir
0.497254 0.915040 0.542409 Ir
0.236313 0.338337 0.624954 Ir
0.236318 0.838338 0.624954 Ir
0.736314 0.338337 0.624954 Ir
0.736318 0.838338 0.624955 Ir
0.010218 0.088833 0.625116 Ir
0.010214 0.588834 0.625116 Ir
0.510218 0.088832 0.625116 Ir
0.510216 0.588834 0.625116 Ir
0.346679 0.188024 0.351068 O
0.346658 0.688028 0.351067 O
0.846679 0.188024 0.351068 O
0.846658 0.688028 0.351067 O
0.095757 0.231792 0.399325 O
0.095753 0.731802 0.399325 O
0.595756 0.231792 0.399325 O
0.595755 0.731792 0.399326 O
0.153250 0.481597 0.399260 O
0.153250 0.981597 0.399260 O
0.653250 0.481597 0.399260 O
0.653250 0.981597 0.399260 O
0.404273 0.434757 0.349372 O
0.404273 0.934757 0.349372 O
0.904273 0.434757 0.349372 O
0.904273 0.934757 0.349372 O
0.342900 0.353155 0.433987 O
0.342880 0.853151 0.433988 O
0.842901 0.353155 0.433987 O
0.842880 0.853151 0.433988 O
0.095769 0.400458 0.484505 O
0.095768 0.900458 0.484505 O
0.595767 0.400460 0.484504 O
0.595768 0.900458 0.484505 O
0.153770 0.148979 0.483979 O
0.153772 0.648979 0.483979 O
0.653771 0.148979 0.483979 O
0.653771 0.648979 0.483979 O
0.404239 0.101923 0.433341 O
0.404239 0.601923 0.433341 O
0.904239 0.101923 0.433341 O
0.904241 0.601923 0.433340 O
0.346235 0.017690 0.516020 O
0.346236 0.517690 0.516020 O
0.846236 0.017690 0.516020 O
0.846234 0.517689 0.516020 O
0.095760 0.064740 0.566661 O
0.095762 0.564742 0.566660 O
0.595762 0.064742 0.566660 O
0.595762 0.564742 0.566660 O
0.157094 0.313515 0.566013 O
0.157095 0.813515 0.566013 O
0.657094 0.313515 0.566013 O
0.657148 0.813517 0.566013 O
0.404234 0.266212 0.515495 O
0.404234 0.766211 0.515495 O
0.904235 0.266213 0.515494 O
0.904234 0.766211 0.515495 O
0.346751 0.185069 0.600739 O
0.346751 0.685069 0.600740 O
0.846751 0.185069 0.600739 O
0.846751 0.685069 0.600740 O
0.095727 0.231910 0.650628 O
0.095727 0.731910 0.650628 O
0.595727 0.231910 0.650628 O
0.595727 0.731910 0.650628 O
0.153320 0.478643 0.648932 O
0.153321 0.978643 0.648932 O
0.653320 0.478643 0.648932 O
0.653321 0.978643 0.648932 O
0.404247 0.434864 0.600676 O
0.404247 0.934875 0.600674 O
0.904244 0.434864 0.600674 O
0.904242 0.934873 0.600675 O
0.220192 0.727619 0.708666 H
0.349336 0.943672 0.679954 H
0.286378 0.844063 0.743212 H
0.131090 0.870792 0.710378 H
0.237764 0.824735 0.711842 C
0.332141 0.857789 0.677804 O
0.302446 -0.021887 0.708828 H
0.431590 0.194166 0.680117 H
0.368632 0.094557 0.743374 H
0.213344 0.121287 0.710540 H
0.320018 0.075229 0.712004 C
0.414395 0.108283 0.677966 O
0.302444 0.478114 0.708828 H
0.431589 0.694167 0.680117 H
0.368631 0.594558 0.743374 H
0.213342 0.621288 0.710540 H
0.320017 0.575230 0.712004 C
0.414393 0.608285 0.677966 O
0.220187 0.227617 0.708666 H
0.349332 0.443670 0.679954 H
0.286374 0.344062 0.743212 H
0.131085 0.370791 0.710378 H
0.237760 0.324733 0.711842 C
0.332136 0.357788 0.677804 O
-0.197558 0.478115 0.708828 H
-0.068414 0.694168 0.680117 H
-0.131372 0.594559 0.743374 H
-0.286660 0.621288 0.710540 H
-0.179986 0.575231 0.712004 C
-0.085609 0.608285 0.677966 O
-0.197553 -0.021887 0.708828 H
-0.068409 0.194166 0.680117 H
-0.131367 0.094558 0.743374 H
-0.286656 0.121287 0.710540 H
-0.179981 0.075229 0.712004 C
-0.085605 0.108284 0.677966 O
0.720193 0.727619 0.708666 H
0.849337 0.943672 0.679955 H
0.786379 0.844063 0.743212 H
0.631090 0.870792 0.710378 H
0.737765 0.824734 0.711842 C
0.832141 0.857789 0.677804 O
0.720189 0.227617 0.708666 H
0.849333 0.443671 0.679954 H
0.786375 0.344062 0.743211 H
0.631086 0.370791 0.710377 H
0.737761 0.324733 0.711842 C
0.832137 0.357788 0.677803 O
