H1 Ir32 O69                             
   1.00000000000000     
     6.3790139999999997    0.0000000000000000    0.0000000000000000
     0.0000000000000000   12.8550290000000000    0.0000000000000000
     0.0000000000000000    0.0000000000000000   38.5650860000000009
   H    Ir   O 
     1    32    69
Direct
  0.7000193393037069  0.5805764135994382  0.6790663362008019
  0.2500464084851278  0.1248932507434207  0.3735792666886639
  0.2500439728226488  0.6248834204506791  0.3735808567992882
  0.7500443053843544  0.1248948672213258  0.3735797048240496
  0.7500526553311516  0.6248826189614316  0.3735829777007937
 -0.0001536068201670  0.3747951956611001  0.3765790842976752
 -0.0001382777864927  0.8747937725497397  0.3765821358853199
  0.4998596441435844  0.3747940848620813  0.3765817171715344
  0.4998726293059931  0.8748022391822833  0.3765810061774519
  0.2496080478302664  0.3743921599947898  0.4581313963967368
  0.2495489311887981  0.8743842671885128  0.4581391827511465
  0.7496078794726997  0.3743621177875619  0.4581437777342536
  0.7495903450423559  0.8743904190807587  0.4581334525295257
  0.0001432608957334  0.1247028958399264  0.4579760546830007
  0.0000939378984648  0.6247203319569873  0.4579684365036696
  0.5001345345635381  0.1247083003992027  0.4579754762166175
  0.5000818229968325  0.6247275947765880  0.4579641299640358
  0.2500721957117763  0.1246082460393683  0.5413301072382253
  0.2508260064923400  0.6252250137796768  0.5413256102737050
  0.7501314699913099  0.1247015271576649  0.5413280786534376
  0.7495929251586291  0.6244497543723343  0.5413039957057963
 -0.0001233753437742  0.3748343783333895  0.5419868589119280
 -0.0003240983123097  0.8747876392262315  0.5419847895901191
  0.4996478447613933  0.3746029531025072  0.5419745562841208
  0.4999433643799186  0.8749107059807700  0.5419888008719770
  0.2503321269010633  0.3750010627104783  0.6263700153039939
  0.2503174406396923  0.8746815290443951  0.6263895718196278
  0.7501458990184368  0.3745178964558297  0.6263035640602697
  0.7500619022368766  0.8750936784145293  0.6263810475335050
  0.0002135033872254  0.1248337281247282  0.6264904901153093
 -0.0033055036367240  0.6240968918997767  0.6241916991329831
  0.4999438045797709  0.1248169324780834  0.6264871127028921
  0.4975247359858818  0.6256902768451951  0.6252824574262809
  0.0000131863494281  0.1249915291846330  0.3423535462863786
  0.0000277010470638  0.6249916014809996  0.3423547237763259
  0.5000133813064915  0.1249915874517940  0.3423535323605078
  0.5000324887087891  0.6249916965246640  0.3423547317109828
  0.2499901299322928  0.2771313578512818  0.3749642311370664
  0.2499916926859390  0.7771313381030274  0.3749642874490712
  0.7499898262494847  0.2771314038744510  0.3749642218597362
  0.7499912300367604  0.7771316115041323  0.3749642224238331
  0.0000185677364342  0.1249910505168978  0.4075850505794173
  0.0000166526777789  0.6249909509553802  0.4075821611715512
  0.5000185122108114  0.1249916259616016  0.4075847794600940
  0.5000215225863532  0.6249911145447081  0.4075850201133311
  0.2499898016303414  0.4728363283409749  0.3749652189595608
  0.2499905644572805  0.9728367241108620  0.3749651581219647
  0.7499890495209034  0.4728363166942219  0.3749651537687139
  0.7499904847796841  0.9728367706456605  0.3749651601098417
 -0.0000578995098561  0.3749918907747652  0.4257426356559478
 -0.0000558757176257  0.8749925503140655  0.4257425741456363
  0.4999462453630212  0.3749923139758111  0.4257425548349841
  0.4999378156599706  0.8749924295664071  0.4257426320211805
  0.2499985085069598  0.0271149700372876  0.4583203849615551
  0.2499934272589275  0.5271161883447071  0.4583203809656350
  0.7499980701359947  0.0271151758407569  0.4583202979561948
  0.7499942439767311  0.5271151508180725  0.4583205692583934
 -0.0000449941936011  0.3749866880902071  0.4909556638747836
 -0.0000576175292637  0.8749872333066642  0.4909554470911484
  0.4999431815009794  0.3749865594695965  0.4909557440581083
  0.4999514595160727  0.8749877327246716  0.4909552633112130
  0.2500002154743152  0.2228177349425252  0.4583205514328929
  0.2499932463849677  0.7228176068195444  0.4583208349910314
  0.7500002525617732  0.2228172219438797  0.4583206285795542
  0.7499951784794141  0.7228176860873935  0.4583205267238248
  0.0000406578364797  0.1249878371081195  0.5090240362670244
  0.0000033601565086  0.6249896810829182  0.5090283497452145
  0.5000387558546443  0.1249880582803472  0.5090241454806146
  0.5000496760137492  0.6249879761035333  0.5090215038128074
  0.2499709807331901  0.2771120813395924  0.5416576248689086
  0.2500152748468420  0.7771384294705289  0.5416581292685966
  0.7499908294281550  0.2771133428053086  0.5416576631152600
  0.7499755215817191  0.7771168836999947  0.5416589003254385
  0.0000206211960792  0.1249877879278952  0.5742738025875846
  0.0000923767280914  0.6249873510068557  0.5742230409764877
  0.5000171017582576  0.1249877526540155  0.5742737401511515
  0.4999367549090385  0.6249914949386238  0.5742512061119818
  0.2499988035131098  0.4728484833129331  0.5416582985897151
  0.2499751713530124  0.9728391513950022  0.5416578287913775
  0.7499490941629834  0.4728205737191090  0.5416580854928582
  0.7499949871391740  0.9728420448514045  0.5416577579385111
  0.0000461513363939  0.3749902022061255  0.5923958050286692
 -0.0000032911846786  0.8749899983777939  0.5923960158125752
  0.4999915386491874  0.3749840355661549  0.5923934870898449
  0.5000501130246853  0.8749946949570113  0.5923961989115465
  0.2500002575495779  0.0278557188075576  0.6238553269958805
  0.2499874158113696  0.5278528391259560  0.6238502704750309
  0.7500012439525534  0.0278643762887633  0.6238556006963737
  0.7499038351590699  0.5278565265146495  0.6238604605680184
  0.0000154657559563  0.3749897195404104  0.6576176816935457
  0.0000278745958994  0.8749888802882237  0.6576188016537046
  0.5000468814368432  0.3749996236499851  0.6576189513795772
  0.5000379972642103  0.8749892920323015  0.6576178855920144
  0.2499981209155885  0.2221212854347825  0.6238560378399450
  0.2499895510645875  0.7221226540102705  0.6238586886089047
  0.7500021995554723  0.2221136575556417  0.6238558768803280
  0.7499525550813669  0.7220961635755466  0.6238506403805466
  0.0000175223031171  0.1249904291029960  0.6722595112325058
  0.5000202948587152  0.1249903684929250  0.6722602805228074
  0.4995090725299111  0.6248946560786077  0.6722179906949198
  0.0065938462612952  0.6249667048714327  0.6725149308351955
  0.8438720650731188  0.5936609388042332  0.6927768062853512
 
  0.00000000E+00  0.00000000E+00  0.00000000E+00
  0.00000000E+00  0.00000000E+00  0.00000000E+00
  0.00000000E+00  0.00000000E+00  0.00000000E+00
  0.00000000E+00  0.00000000E+00  0.00000000E+00
  0.00000000E+00  0.00000000E+00  0.00000000E+00
  0.00000000E+00  0.00000000E+00  0.00000000E+00
  0.00000000E+00  0.00000000E+00  0.00000000E+00
  0.00000000E+00  0.00000000E+00  0.00000000E+00
  0.00000000E+00  0.00000000E+00  0.00000000E+00
  0.00000000E+00  0.00000000E+00  0.00000000E+00
  0.00000000E+00  0.00000000E+00  0.00000000E+00
  0.00000000E+00  0.00000000E+00  0.00000000E+00
  0.00000000E+00  0.00000000E+00  0.00000000E+00
  0.00000000E+00  0.00000000E+00  0.00000000E+00
  0.00000000E+00  0.00000000E+00  0.00000000E+00
  0.00000000E+00  0.00000000E+00  0.00000000E+00
  0.00000000E+00  0.00000000E+00  0.00000000E+00
  0.00000000E+00  0.00000000E+00  0.00000000E+00
  0.00000000E+00  0.00000000E+00  0.00000000E+00
  0.00000000E+00  0.00000000E+00  0.00000000E+00
  0.00000000E+00  0.00000000E+00  0.00000000E+00
  0.00000000E+00  0.00000000E+00  0.00000000E+00
  0.00000000E+00  0.00000000E+00  0.00000000E+00
  0.00000000E+00  0.00000000E+00  0.00000000E+00
  0.00000000E+00  0.00000000E+00  0.00000000E+00
  0.00000000E+00  0.00000000E+00  0.00000000E+00
  0.00000000E+00  0.00000000E+00  0.00000000E+00
  0.00000000E+00  0.00000000E+00  0.00000000E+00
  0.00000000E+00  0.00000000E+00  0.00000000E+00
  0.00000000E+00  0.00000000E+00  0.00000000E+00
  0.00000000E+00  0.00000000E+00  0.00000000E+00
  0.00000000E+00  0.00000000E+00  0.00000000E+00
  0.00000000E+00  0.00000000E+00  0.00000000E+00
  0.00000000E+00  0.00000000E+00  0.00000000E+00
  0.00000000E+00  0.00000000E+00  0.00000000E+00
  0.00000000E+00  0.00000000E+00  0.00000000E+00
  0.00000000E+00  0.00000000E+00  0.00000000E+00
  0.00000000E+00  0.00000000E+00  0.00000000E+00
  0.00000000E+00  0.00000000E+00  0.00000000E+00
  0.00000000E+00  0.00000000E+00  0.00000000E+00
  0.00000000E+00  0.00000000E+00  0.00000000E+00
  0.00000000E+00  0.00000000E+00  0.00000000E+00
  0.00000000E+00  0.00000000E+00  0.00000000E+00
  0.00000000E+00  0.00000000E+00  0.00000000E+00
  0.00000000E+00  0.00000000E+00  0.00000000E+00
  0.00000000E+00  0.00000000E+00  0.00000000E+00
  0.00000000E+00  0.00000000E+00  0.00000000E+00
  0.00000000E+00  0.00000000E+00  0.00000000E+00
  0.00000000E+00  0.00000000E+00  0.00000000E+00
  0.00000000E+00  0.00000000E+00  0.00000000E+00
  0.00000000E+00  0.00000000E+00  0.00000000E+00
  0.00000000E+00  0.00000000E+00  0.00000000E+00
  0.00000000E+00  0.00000000E+00  0.00000000E+00
  0.00000000E+00  0.00000000E+00  0.00000000E+00
  0.00000000E+00  0.00000000E+00  0.00000000E+00
  0.00000000E+00  0.00000000E+00  0.00000000E+00
  0.00000000E+00  0.00000000E+00  0.00000000E+00
  0.00000000E+00  0.00000000E+00  0.00000000E+00
  0.00000000E+00  0.00000000E+00  0.00000000E+00
  0.00000000E+00  0.00000000E+00  0.00000000E+00
  0.00000000E+00  0.00000000E+00  0.00000000E+00
  0.00000000E+00  0.00000000E+00  0.00000000E+00
  0.00000000E+00  0.00000000E+00  0.00000000E+00
  0.00000000E+00  0.00000000E+00  0.00000000E+00
  0.00000000E+00  0.00000000E+00  0.00000000E+00
  0.00000000E+00  0.00000000E+00  0.00000000E+00
  0.00000000E+00  0.00000000E+00  0.00000000E+00
  0.00000000E+00  0.00000000E+00  0.00000000E+00
  0.00000000E+00  0.00000000E+00  0.00000000E+00
  0.00000000E+00  0.00000000E+00  0.00000000E+00
  0.00000000E+00  0.00000000E+00  0.00000000E+00
  0.00000000E+00  0.00000000E+00  0.00000000E+00
  0.00000000E+00  0.00000000E+00  0.00000000E+00
  0.00000000E+00  0.00000000E+00  0.00000000E+00
  0.00000000E+00  0.00000000E+00  0.00000000E+00
  0.00000000E+00  0.00000000E+00  0.00000000E+00
  0.00000000E+00  0.00000000E+00  0.00000000E+00
  0.00000000E+00  0.00000000E+00  0.00000000E+00
  0.00000000E+00  0.00000000E+00  0.00000000E+00
  0.00000000E+00  0.00000000E+00  0.00000000E+00
  0.00000000E+00  0.00000000E+00  0.00000000E+00
  0.00000000E+00  0.00000000E+00  0.00000000E+00
  0.00000000E+00  0.00000000E+00  0.00000000E+00
  0.00000000E+00  0.00000000E+00  0.00000000E+00
  0.00000000E+00  0.00000000E+00  0.00000000E+00
  0.00000000E+00  0.00000000E+00  0.00000000E+00
  0.00000000E+00  0.00000000E+00  0.00000000E+00
  0.00000000E+00  0.00000000E+00  0.00000000E+00
  0.00000000E+00  0.00000000E+00  0.00000000E+00
  0.00000000E+00  0.00000000E+00  0.00000000E+00
  0.00000000E+00  0.00000000E+00  0.00000000E+00
  0.00000000E+00  0.00000000E+00  0.00000000E+00
  0.00000000E+00  0.00000000E+00  0.00000000E+00
  0.00000000E+00  0.00000000E+00  0.00000000E+00
  0.00000000E+00  0.00000000E+00  0.00000000E+00
  0.00000000E+00  0.00000000E+00  0.00000000E+00
  0.00000000E+00  0.00000000E+00  0.00000000E+00
  0.00000000E+00  0.00000000E+00  0.00000000E+00
  0.00000000E+00  0.00000000E+00  0.00000000E+00
  0.00000000E+00  0.00000000E+00  0.00000000E+00
  0.00000000E+00  0.00000000E+00  0.00000000E+00
  0.00000000E+00  0.00000000E+00  0.00000000E+00
