H8 Ir32 O72
1.0
9.089878 0.000000 0.000000
0.000000 11.104567 -0.079300
0.000000 0.000000 31.330060
H Ir O
8 32 72
direct
0.224915 0.353845 0.692329 H
0.224916 0.853845 0.692329 H
0.724915 0.353845 0.692329 H
0.724916 0.853844 0.692329 H
-0.197883 0.102960 0.691757 H
-0.197879 0.602961 0.691757 H
0.302116 0.102960 0.691757 H
0.302121 0.602961 0.691757 H
0.263640 0.328426 0.375028 Ir
0.263640 0.828425 0.375028 Ir
0.763640 0.328426 0.375028 Ir
0.763640 0.828427 0.375028 Ir
-0.010235 0.077832 0.374882 Ir
-0.010237 0.577831 0.374882 Ir
0.489764 0.077832 0.374882 Ir
0.489764 0.577832 0.374883 Ir
0.248206 0.002158 0.457278 Ir
0.248213 0.502158 0.457278 Ir
0.748208 0.002159 0.457278 Ir
0.748207 0.502159 0.457278 Ir
0.002335 0.252083 0.457535 Ir
0.002337 0.752080 0.457535 Ir
0.502338 0.252080 0.457535 Ir
0.502338 0.752080 0.457535 Ir
0.251788 0.164503 0.542720 Ir
0.251796 0.664500 0.542720 Ir
0.751789 0.164504 0.542720 Ir
0.751793 0.664502 0.542721 Ir
-0.002337 0.414587 0.542464 Ir
-0.002337 0.914587 0.542464 Ir
0.497680 0.414571 0.542465 Ir
0.497677 0.914571 0.542466 Ir
0.236363 0.338239 0.624971 Ir
0.236363 0.838239 0.624971 Ir
0.736362 0.338239 0.624972 Ir
0.736364 0.838239 0.624971 Ir
0.010236 0.088835 0.625117 Ir
0.010240 0.588836 0.625118 Ir
0.510235 0.088835 0.625117 Ir
0.510240 0.588836 0.625117 Ir
0.346597 0.188042 0.351061 O
0.346599 0.688039 0.351061 O
0.846597 0.188042 0.351061 O
0.846596 0.688043 0.351061 O
0.095710 0.231818 0.399327 O
0.095733 0.731807 0.399327 O
0.595714 0.231808 0.399329 O
0.595714 0.731808 0.399329 O
0.153241 0.481596 0.399261 O
0.153241 0.981596 0.399261 O
0.653241 0.481596 0.399261 O
0.653241 0.981596 0.399261 O
0.404241 0.434802 0.349375 O
0.404241 0.934802 0.349375 O
0.904241 0.434802 0.349375 O
0.904241 0.934802 0.349375 O
0.342748 0.353153 0.433988 O
0.342748 0.853152 0.433988 O
0.842748 0.353153 0.433988 O
0.842748 0.853153 0.433988 O
0.095771 0.400458 0.484507 O
0.095771 0.900458 0.484506 O
0.595772 0.400458 0.484507 O
0.595771 0.900458 0.484506 O
0.153211 0.148909 0.484046 O
0.153211 0.648909 0.484046 O
0.653211 0.148909 0.484046 O
0.653211 0.648909 0.484046 O
0.404254 0.101927 0.433338 O
0.404254 0.601927 0.433338 O
0.904254 0.101927 0.433338 O
0.904254 0.601927 0.433338 O
0.346772 0.017764 0.515953 O
0.346804 0.517778 0.515952 O
0.846771 0.017766 0.515953 O
0.846769 0.517763 0.515953 O
0.095730 0.064751 0.566672 O
0.095731 0.564751 0.566672 O
0.595731 0.064751 0.566672 O
0.595731 0.564751 0.566672 O
0.157254 0.313512 0.566012 O
0.157254 0.813512 0.566012 O
0.657255 0.313512 0.566012 O
0.657254 0.813512 0.566013 O
0.404229 0.266208 0.515493 O
0.404229 0.766208 0.515493 O
0.904229 0.266208 0.515493 O
0.904229 0.766208 0.515493 O
0.346762 0.185071 0.600738 O
0.346762 0.685071 0.600738 O
0.846762 0.185071 0.600738 O
0.846762 0.685071 0.600738 O
0.095761 0.231865 0.650624 O
0.095761 0.731865 0.650624 O
0.595761 0.231865 0.650624 O
0.595761 0.731865 0.650624 O
0.153401 0.478624 0.648937 O
0.153401 0.978624 0.648937 O
0.653401 0.478624 0.648937 O
0.653401 0.978624 0.648937 O
0.404285 0.434850 0.600672 O
0.404296 0.934855 0.600671 O
0.904283 0.434851 0.600672 O
0.904295 0.934855 0.600671 O
0.334928 0.353845 0.678859 O
0.334928 0.853845 0.678859 O
0.834928 0.353845 0.678859 O
0.834929 0.853844 0.678859 O
-0.087870 0.102960 0.678288 O
-0.087866 0.602961 0.678288 O
0.412129 0.102960 0.678287 O
0.412133 0.602961 0.678288 O
