H8 Ir32 O72                             
   1.00000000000000     
     9.0898780000000006    0.0000000000000000    0.0000000000000000
     0.0000000000000000   11.1045669999999994   -0.0793000000000000
     0.0000000000000000    0.0000000000000000   31.3300599999999996
   H    Ir   O 
     8    32    72
Direct
  0.3723755220256619  0.2632728351540383  0.6877530722174541
  0.3717112903446855  0.7628863117146426  0.6882304495898444
  0.8660587535866850  0.2673081022293749  0.6898612332615182
  0.8716592054354129  0.7626481745377393  0.6881848856306541
  0.8811322601104501  0.0208475319083916  0.6913426315078959
  0.8811487564570235  0.5208367661693989  0.6913145260392003
  0.3811227273735032  0.0208653979698830  0.6913519215919792
  0.3811595498248716  0.5208505182964778  0.6913194292883892
  0.2632413995446177  0.3286176964074037  0.3750994005353765
  0.2632425827937354  0.8286263354638688  0.3751012877880890
  0.7632415913287287  0.3286180992285897  0.3750996802702030
  0.7632374049233768  0.8286310485568240  0.3751032411887916
  0.9884327083314358  0.0786726649057587  0.3757562889093501
  0.9884371352192994  0.5786728434073855  0.3757532542995052
  0.4884362431627232  0.0786696805338757  0.3757558165042988
  0.4884381449735451  0.5786727804919605  0.3757538575728556
  0.2477287881967065  0.0023779010274015  0.4573828324595564
  0.2477509988975697  0.5023204252388009  0.4573519829158680
  0.7477462012564317  0.0024870200241545  0.4574007496881851
  0.7477577778636153  0.5023091360338920  0.4573495137617617
  0.0017889768937532  0.2528072144572351  0.4576039514800590
  0.0018173017252861  0.7528246942886586  0.4575862985764382
  0.5018105968223829  0.2528065645583679  0.4575987894228221
  0.5018113138805994  0.7528392776084468  0.4575935732727855
  0.2492606440212577  0.1655638507691128  0.5415706167434250
  0.2497736188595099  0.6659578652554540  0.5413466176831028
  0.7490834068912849  0.1652451344094265  0.5417130714991973
  0.7497825016851842  0.6659969533972498  0.5412853247554288
 -0.0000291600078845  0.4144107728510036  0.5418309956764422
 -0.0000395700030374  0.9144649006370557  0.5418337696720188
  0.4999724089349970  0.4144351728579976  0.5418356645511113
  0.4997784365946935  0.9144707105037799  0.5419394255630684
  0.2400980051850529  0.3339488143248601  0.6258144927017759
  0.2402057752475238  0.8341602353348598  0.6262282775339471
  0.7402238332033347  0.3341311213683646  0.6257239077462446
  0.7406657728615262  0.8339287226877857  0.6259172965900163
  0.0067256563476105  0.0845237105970278  0.6258428871970979
  0.0068925003826544  0.5862538514258692  0.6252830812937551
  0.5069868952698833  0.0846964067048307  0.6259410657864601
  0.5069206965648276  0.5863963095608506  0.6252557310532787
  0.3499820304228553  0.1888595586177474  0.3510630405707416
  0.3499818137289991  0.6888603123574469  0.3510632071582359
  0.8499822104627512  0.1888598439656524  0.3510631732712627
  0.8499818077375946  0.6888596251784683  0.3510631735498720
  0.0956430919692794  0.2318765136657988  0.3993254350530988
  0.0956442578598972  0.7318764478920561  0.3993247096651187
  0.5956440601408720  0.2318761787039874  0.3993252117152383
  0.5956432638119527  0.7318768625457542  0.3993251443103258
  0.1529358719717171  0.4817651893586588  0.3993138606930712
  0.1529402233208967  0.9817653927098769  0.3993147014979410
  0.6529343725855135  0.4817649892806827  0.3993138958269630
  0.6529396923279612  0.9817673932697892  0.3993157424686151
  0.4041142352417287  0.4364916343758687  0.3512237737526767
  0.4041121735460981  0.9364915201479255  0.3512240621045560
  0.9041122999596193  0.4364917934532526  0.3512240543868096
  0.9041141809880056  0.9364909116525522  0.3512239234297697
  0.3425350425408643  0.3531831276061595  0.4339920136980769
  0.3425314137975036  0.8531849579565512  0.4339922507823859
  0.8425367670043223  0.3531830794648865  0.4339919623455165
  0.8425317919105595  0.8531845810573648  0.4339925731978723
  0.0957747682292963  0.4004730402631339  0.4844900285909157
  0.0957733059970139  0.9004745275558879  0.4844908364001065
  0.5957799621518233  0.4004677762074538  0.4844876524522121
  0.5957671126793596  0.9004804609055597  0.4844956342666724
  0.1529455894204642  0.1490011393963575  0.4839944265423053
  0.1529501519600700  0.6489993747504966  0.4839882340275694
  0.6529042687209180  0.1489991767227994  0.4840035689598617
  0.6529467662823091  0.6490002398479434  0.4839860693239413
  0.4045457170906451  0.1017029680762914  0.4339893935341446
  0.4045442067769502  0.6017015004304750  0.4339882871649838
  0.9045404439236905  0.1017057949277216  0.4339909912019901
  0.9045470409203198  0.6017055051118579  0.4339887823454560
  0.3459749974234198  0.0178577831284793  0.5160926531744645
  0.3466429019331871  0.5179211305422899  0.5159463202212000
  0.8459800599840658  0.0178497154313095  0.5160912771690617
  0.8466412560666000  0.5179209747480689  0.5159433182923515
  0.0958426868260805  0.0649719878827604  0.5667064817406189
  0.0959786338044413  0.5650959995228202  0.5666652437505154
  0.5958027561936186  0.0649423649690081  0.5667184008752286
  0.5959884549452413  0.5651060033940887  0.5666636720386130
  0.1565569676215238  0.3136121769701650  0.5660354060889642
  0.1566283165890693  0.8136155852693131  0.5660384353714507
  0.6565627022523663  0.3136045633876289  0.5660350626605520
  0.6565783912536524  0.8136156272927186  0.5660349979780048
  0.4041966015186350  0.2662763209698452  0.5155014889055655
  0.4042415996129166  0.7663013660190848  0.5155087687964333
  0.9041887227685304  0.2662681635834139  0.5155042825472592
  0.9042417825175924  0.7662887654883959  0.5155007780061461
  0.3428441814076452  0.1865017568221639  0.6006330377571103
  0.3426913679796984  0.6865255886888658  0.6006307007650772
  0.8427833820065803  0.1864956316584263  0.6006355353324597
  0.8427081472731232  0.6865170713938408  0.6006268307999140
  0.0967912007335711  0.2320663366531945  0.6487444723983935
  0.0959448345780540  0.7333942241518508  0.6487783882360272
  0.5968170257788430  0.2320916317896497  0.6487500694869337
  0.5959577571085491  0.7334173850591699  0.6487638719686303
  0.1499736110362478  0.4809438206647533  0.6480447974993504
  0.1500129527347512  0.9809484927405308  0.6480676591456231
  0.6499638603693194  0.4809485020150805  0.6480413610129124
  0.6500229199402594  0.9809395861439777  0.6480619673583680
  0.4039349469953841  0.4351214456774311  0.5999753777852137
  0.4043172125417959  0.9349345498493077  0.6006196776224354
  0.9039461966185555  0.4351263158998719  0.5999744049234828
  0.9039124069118168  0.9351038461713659  0.5999869127215307
  0.3357600839074583  0.3450641928692811  0.6803978481918375
  0.3386222169590888  0.8461025587282659  0.6812039564680895
  0.8356958261075260  0.3470437585297939  0.6803401261327339
  0.8375073551055227  0.8446775668923512  0.6807535293580380
  0.9109665862143098  0.1006490625043077  0.6803833777120222
  0.9110425884179089  0.6007277865825165  0.6803631825854117
  0.4109945646290876  0.1006988589314549  0.6803870592198650
  0.4110403548415510  0.6007285306285759  0.6803625597945150
 
  0.00000000E+00  0.00000000E+00  0.00000000E+00
  0.00000000E+00  0.00000000E+00  0.00000000E+00
  0.00000000E+00  0.00000000E+00  0.00000000E+00
  0.00000000E+00  0.00000000E+00  0.00000000E+00
  0.00000000E+00  0.00000000E+00  0.00000000E+00
  0.00000000E+00  0.00000000E+00  0.00000000E+00
  0.00000000E+00  0.00000000E+00  0.00000000E+00
  0.00000000E+00  0.00000000E+00  0.00000000E+00
  0.00000000E+00  0.00000000E+00  0.00000000E+00
  0.00000000E+00  0.00000000E+00  0.00000000E+00
  0.00000000E+00  0.00000000E+00  0.00000000E+00
  0.00000000E+00  0.00000000E+00  0.00000000E+00
  0.00000000E+00  0.00000000E+00  0.00000000E+00
  0.00000000E+00  0.00000000E+00  0.00000000E+00
  0.00000000E+00  0.00000000E+00  0.00000000E+00
  0.00000000E+00  0.00000000E+00  0.00000000E+00
  0.00000000E+00  0.00000000E+00  0.00000000E+00
  0.00000000E+00  0.00000000E+00  0.00000000E+00
  0.00000000E+00  0.00000000E+00  0.00000000E+00
  0.00000000E+00  0.00000000E+00  0.00000000E+00
  0.00000000E+00  0.00000000E+00  0.00000000E+00
  0.00000000E+00  0.00000000E+00  0.00000000E+00
  0.00000000E+00  0.00000000E+00  0.00000000E+00
  0.00000000E+00  0.00000000E+00  0.00000000E+00
  0.00000000E+00  0.00000000E+00  0.00000000E+00
  0.00000000E+00  0.00000000E+00  0.00000000E+00
  0.00000000E+00  0.00000000E+00  0.00000000E+00
  0.00000000E+00  0.00000000E+00  0.00000000E+00
  0.00000000E+00  0.00000000E+00  0.00000000E+00
  0.00000000E+00  0.00000000E+00  0.00000000E+00
  0.00000000E+00  0.00000000E+00  0.00000000E+00
  0.00000000E+00  0.00000000E+00  0.00000000E+00
  0.00000000E+00  0.00000000E+00  0.00000000E+00
  0.00000000E+00  0.00000000E+00  0.00000000E+00
  0.00000000E+00  0.00000000E+00  0.00000000E+00
  0.00000000E+00  0.00000000E+00  0.00000000E+00
  0.00000000E+00  0.00000000E+00  0.00000000E+00
  0.00000000E+00  0.00000000E+00  0.00000000E+00
  0.00000000E+00  0.00000000E+00  0.00000000E+00
  0.00000000E+00  0.00000000E+00  0.00000000E+00
  0.00000000E+00  0.00000000E+00  0.00000000E+00
  0.00000000E+00  0.00000000E+00  0.00000000E+00
  0.00000000E+00  0.00000000E+00  0.00000000E+00
  0.00000000E+00  0.00000000E+00  0.00000000E+00
  0.00000000E+00  0.00000000E+00  0.00000000E+00
  0.00000000E+00  0.00000000E+00  0.00000000E+00
  0.00000000E+00  0.00000000E+00  0.00000000E+00
  0.00000000E+00  0.00000000E+00  0.00000000E+00
  0.00000000E+00  0.00000000E+00  0.00000000E+00
  0.00000000E+00  0.00000000E+00  0.00000000E+00
  0.00000000E+00  0.00000000E+00  0.00000000E+00
  0.00000000E+00  0.00000000E+00  0.00000000E+00
  0.00000000E+00  0.00000000E+00  0.00000000E+00
  0.00000000E+00  0.00000000E+00  0.00000000E+00
  0.00000000E+00  0.00000000E+00  0.00000000E+00
  0.00000000E+00  0.00000000E+00  0.00000000E+00
  0.00000000E+00  0.00000000E+00  0.00000000E+00
  0.00000000E+00  0.00000000E+00  0.00000000E+00
  0.00000000E+00  0.00000000E+00  0.00000000E+00
  0.00000000E+00  0.00000000E+00  0.00000000E+00
  0.00000000E+00  0.00000000E+00  0.00000000E+00
  0.00000000E+00  0.00000000E+00  0.00000000E+00
  0.00000000E+00  0.00000000E+00  0.00000000E+00
  0.00000000E+00  0.00000000E+00  0.00000000E+00
  0.00000000E+00  0.00000000E+00  0.00000000E+00
  0.00000000E+00  0.00000000E+00  0.00000000E+00
  0.00000000E+00  0.00000000E+00  0.00000000E+00
  0.00000000E+00  0.00000000E+00  0.00000000E+00
  0.00000000E+00  0.00000000E+00  0.00000000E+00
  0.00000000E+00  0.00000000E+00  0.00000000E+00
  0.00000000E+00  0.00000000E+00  0.00000000E+00
  0.00000000E+00  0.00000000E+00  0.00000000E+00
  0.00000000E+00  0.00000000E+00  0.00000000E+00
  0.00000000E+00  0.00000000E+00  0.00000000E+00
  0.00000000E+00  0.00000000E+00  0.00000000E+00
  0.00000000E+00  0.00000000E+00  0.00000000E+00
  0.00000000E+00  0.00000000E+00  0.00000000E+00
  0.00000000E+00  0.00000000E+00  0.00000000E+00
  0.00000000E+00  0.00000000E+00  0.00000000E+00
  0.00000000E+00  0.00000000E+00  0.00000000E+00
  0.00000000E+00  0.00000000E+00  0.00000000E+00
  0.00000000E+00  0.00000000E+00  0.00000000E+00
  0.00000000E+00  0.00000000E+00  0.00000000E+00
  0.00000000E+00  0.00000000E+00  0.00000000E+00
  0.00000000E+00  0.00000000E+00  0.00000000E+00
  0.00000000E+00  0.00000000E+00  0.00000000E+00
  0.00000000E+00  0.00000000E+00  0.00000000E+00
  0.00000000E+00  0.00000000E+00  0.00000000E+00
  0.00000000E+00  0.00000000E+00  0.00000000E+00
  0.00000000E+00  0.00000000E+00  0.00000000E+00
  0.00000000E+00  0.00000000E+00  0.00000000E+00
  0.00000000E+00  0.00000000E+00  0.00000000E+00
  0.00000000E+00  0.00000000E+00  0.00000000E+00
  0.00000000E+00  0.00000000E+00  0.00000000E+00
  0.00000000E+00  0.00000000E+00  0.00000000E+00
  0.00000000E+00  0.00000000E+00  0.00000000E+00
  0.00000000E+00  0.00000000E+00  0.00000000E+00
  0.00000000E+00  0.00000000E+00  0.00000000E+00
  0.00000000E+00  0.00000000E+00  0.00000000E+00
  0.00000000E+00  0.00000000E+00  0.00000000E+00
  0.00000000E+00  0.00000000E+00  0.00000000E+00
  0.00000000E+00  0.00000000E+00  0.00000000E+00
  0.00000000E+00  0.00000000E+00  0.00000000E+00
  0.00000000E+00  0.00000000E+00  0.00000000E+00
  0.00000000E+00  0.00000000E+00  0.00000000E+00
  0.00000000E+00  0.00000000E+00  0.00000000E+00
  0.00000000E+00  0.00000000E+00  0.00000000E+00
  0.00000000E+00  0.00000000E+00  0.00000000E+00
  0.00000000E+00  0.00000000E+00  0.00000000E+00
  0.00000000E+00  0.00000000E+00  0.00000000E+00
  0.00000000E+00  0.00000000E+00  0.00000000E+00
  0.00000000E+00  0.00000000E+00  0.00000000E+00
