H1 Ir32 O69                             
   1.00000000000000     
     6.3790139999999997    0.0000000000000000    0.0000000000000000
     0.0000000000000000   12.8550290000000000    0.0000000000000000
     0.0000000000000000    0.0000000000000000   38.5650860000000009
   H    Ir   O 
     1    32    69
Direct
  0.9437109243224724  0.7713216100317118  0.6775887580882273
  0.2491495208564992  0.1250427702663335  0.3735426981311352
  0.2491145501089501  0.6250453436779185  0.3735394083037035
  0.7491445189251628  0.1250423698561823  0.3735416384363656
  0.7491527232384205  0.6250426862413808  0.3735395992128347
 -0.0015274210262115  0.3750422090329830  0.3765857357632528
 -0.0015314392397598  0.8750450600279261  0.3765822506667602
  0.4984721898240057  0.3750344648810820  0.3765866781051077
  0.4984577974730586  0.8750490591706787  0.3765889547589532
  0.2482136876316121  0.3750960950766767  0.4581744024703784
  0.2482568466221863  0.8752931157708920  0.4581734501699110
  0.7481927809575200  0.3751043600041856  0.4581779553903863
  0.7483056790905821  0.8753144423020887  0.4581689033669304
 -0.0008799269423465  0.1250783406574564  0.4579740987669547
 -0.0008867838476843  0.6250728945588033  0.4579721870772276
  0.4991142500406025  0.1250752206707795  0.4579746189392455
  0.4991187026121600  0.6250633632555341  0.4579713555037981
  0.2484990266826596  0.1252103849511569  0.5414063836690138
  0.2495496086457187  0.6245875575056808  0.5413114650039363
  0.7485526742269979  0.1251957534822002  0.5414005233607226
  0.7483821275273637  0.6254444663541000  0.5414150847793001
 -0.0014624367886875  0.3751521739141924  0.5419313886026768
 -0.0015390656047407  0.8749487105207121  0.5418947165003413
  0.4986425010809145  0.3749875754567233  0.5419325992012265
  0.4982710902284326  0.8752378717514622  0.5418436768076450
  0.2495639141546642  0.3752994457025305  0.6263528623238361
  0.2509101761769378  0.8747793719908202  0.6255688212480686
  0.7494151384968554  0.3751452670708074  0.6263717867731622
  0.7470320400714542  0.8754821820103535  0.6253201364833288
 -0.0008858813949295  0.1248955198194957  0.6265200230822164
  0.0002997513666068  0.6260663667094893  0.6246932152986645
  0.4989558238479638  0.1250792641937370  0.6265205300566735
  0.4994110607091756  0.6245909155082405  0.6265275000304499
 -0.0002662810034512  0.1250032094443048  0.3423531090482295
 -0.0002685647859209  0.6250033368536513  0.3423525325802860
  0.4997335081379894  0.1250031443133932  0.3423530066424275
  0.4997311610736324  0.6250029052967211  0.3423530352534020
  0.2496333766089869  0.2771543226258709  0.3749636829108210
  0.2496335305070834  0.7771540652583979  0.3749638586659332
  0.7496343422079106  0.2771543207553114  0.3749636895228233
  0.7496335051078437  0.7771545830095694  0.3749638401563273
 -0.0004258657765564  0.1250027586746977  0.4075719319278190
 -0.0004229813085869  0.6250029751162308  0.4075720799358679
  0.4995816097025516  0.1250028727217432  0.4075718874850062
  0.4995858579615723  0.6250028142458028  0.4075742018250316
  0.2496402598539669  0.4728549822556349  0.3749633818454473
  0.2496350413865016  0.9728543546307370  0.3749633994174998
  0.7496391244475512  0.4728545221891690  0.3749633703267345
  0.7496342999519503  0.9728543523444992  0.3749634125444932
 -0.0004997681902373  0.3750026346229393  0.4257515080311842
 -0.0004941849623654  0.8750024601423499  0.4257510950227720
  0.4995003860401425  0.3750029248594218  0.4257509538884315
  0.4995063335079862  0.8750019362751293  0.4257508551940022
  0.2496465037911728  0.0271647147951191  0.4583197058004530
  0.2496393999406860  0.5271580084783249  0.4583196825441619
  0.7496438437016418  0.0271654280398790  0.4583196569084364
  0.7496496056247808  0.5271583402123809  0.4583195543860795
 -0.0004081719527609  0.3750035465841226  0.4909524288071455
 -0.0004093027153369  0.8750043670128149  0.4909502697129888
  0.4995945806970301  0.3750047131829499  0.4909526894842400
  0.4995909938589602  0.8750028904977487  0.4909519520054865
  0.2496586944912406  0.2228570800765082  0.4583195309827594
  0.2496566308616595  0.7228622816125478  0.4583194997843331
  0.7496598280026837  0.2228575231091809  0.4583195100328127
  0.7496711801136988  0.7228635647128110  0.4583195548742328
 -0.0003452777363824  0.1250050997979111  0.5090261958383832
 -0.0003009206827960  0.6250035488806533  0.5090261738500366
  0.4996542873011359  0.1250048986552684  0.5090263526127008
  0.4997149860806716  0.6250042618333540  0.5090236065517534
  0.2496119182215104  0.2771503436528293  0.5416565140031430
  0.2496228209542624  0.7771336447897405  0.5416567113893402
  0.7496213166001857  0.2771504108788915  0.5416565246203852
  0.7495859734589468  0.7771605235562440  0.5416565936512396
 -0.0003564366044556  0.1250039313988555  0.5742734075880445
 -0.0005692815926685  0.6249925543538386  0.5741982636497822
  0.4996386623903585  0.1250052459374071  0.5742732795148656
  0.4996718481911477  0.6250017621483683  0.5742732593169290
  0.2496516167189034  0.4728511361382584  0.5416557889740848
  0.2495817772120091  0.9728714502941379  0.5416563011655527
  0.7496172607397606  0.4728754580684911  0.5416563417168456
  0.7496206702752359  0.9728718031205382  0.5416564422670875
 -0.0003063015883308  0.3750040182646468  0.5923949007746553
 -0.0002862043220313  0.8750051157121240  0.5923771749708485
  0.4997125054664723  0.3750002038903226  0.5923932554196687
  0.4996176454022805  0.8750129019737524  0.5923693338924831
  0.2499647102882384  0.0278739832470797  0.6238546153435651
  0.2499928115061058  0.5278702168809112  0.6238585620844541
  0.7499548112263441  0.0278846709909539  0.6238539276649090
  0.7499850250129502  0.5278853142540032  0.6238557401636058
 -0.0002344030417023  0.3750063043343546  0.6576152224868136
 -0.0006218256604861  0.8749405285415184  0.6576138826903398
  0.4997476549713664  0.3750066015631607  0.6576155034282590
  0.4996210024659747  0.8749988736358081  0.6575802162192040
  0.2499586956398843  0.2221340128911774  0.6238549270499065
  0.2499668965937411  0.7221330169829697  0.6238554010227496
  0.7499683937819337  0.2221301492189857  0.6238550908214184
  0.7499522732838166  0.7221487459780223  0.6238584784182101
 -0.0004605070020731  0.1250057436783445  0.6722663449115498
  0.4996266101025669  0.1250046118010820  0.6722620693284004
  0.4994315081815860  0.6250001731841031  0.6722666962600061
  0.0066304695802020  0.6215655573600578  0.6736600542941023
  0.9374673796247119  0.7049400157375457  0.6932975721245873
 
  0.00000000E+00  0.00000000E+00  0.00000000E+00
  0.00000000E+00  0.00000000E+00  0.00000000E+00
  0.00000000E+00  0.00000000E+00  0.00000000E+00
  0.00000000E+00  0.00000000E+00  0.00000000E+00
  0.00000000E+00  0.00000000E+00  0.00000000E+00
  0.00000000E+00  0.00000000E+00  0.00000000E+00
  0.00000000E+00  0.00000000E+00  0.00000000E+00
  0.00000000E+00  0.00000000E+00  0.00000000E+00
  0.00000000E+00  0.00000000E+00  0.00000000E+00
  0.00000000E+00  0.00000000E+00  0.00000000E+00
  0.00000000E+00  0.00000000E+00  0.00000000E+00
  0.00000000E+00  0.00000000E+00  0.00000000E+00
  0.00000000E+00  0.00000000E+00  0.00000000E+00
  0.00000000E+00  0.00000000E+00  0.00000000E+00
  0.00000000E+00  0.00000000E+00  0.00000000E+00
  0.00000000E+00  0.00000000E+00  0.00000000E+00
  0.00000000E+00  0.00000000E+00  0.00000000E+00
  0.00000000E+00  0.00000000E+00  0.00000000E+00
  0.00000000E+00  0.00000000E+00  0.00000000E+00
  0.00000000E+00  0.00000000E+00  0.00000000E+00
  0.00000000E+00  0.00000000E+00  0.00000000E+00
  0.00000000E+00  0.00000000E+00  0.00000000E+00
  0.00000000E+00  0.00000000E+00  0.00000000E+00
  0.00000000E+00  0.00000000E+00  0.00000000E+00
  0.00000000E+00  0.00000000E+00  0.00000000E+00
  0.00000000E+00  0.00000000E+00  0.00000000E+00
  0.00000000E+00  0.00000000E+00  0.00000000E+00
  0.00000000E+00  0.00000000E+00  0.00000000E+00
  0.00000000E+00  0.00000000E+00  0.00000000E+00
  0.00000000E+00  0.00000000E+00  0.00000000E+00
  0.00000000E+00  0.00000000E+00  0.00000000E+00
  0.00000000E+00  0.00000000E+00  0.00000000E+00
  0.00000000E+00  0.00000000E+00  0.00000000E+00
  0.00000000E+00  0.00000000E+00  0.00000000E+00
  0.00000000E+00  0.00000000E+00  0.00000000E+00
  0.00000000E+00  0.00000000E+00  0.00000000E+00
  0.00000000E+00  0.00000000E+00  0.00000000E+00
  0.00000000E+00  0.00000000E+00  0.00000000E+00
  0.00000000E+00  0.00000000E+00  0.00000000E+00
  0.00000000E+00  0.00000000E+00  0.00000000E+00
  0.00000000E+00  0.00000000E+00  0.00000000E+00
  0.00000000E+00  0.00000000E+00  0.00000000E+00
  0.00000000E+00  0.00000000E+00  0.00000000E+00
  0.00000000E+00  0.00000000E+00  0.00000000E+00
  0.00000000E+00  0.00000000E+00  0.00000000E+00
  0.00000000E+00  0.00000000E+00  0.00000000E+00
  0.00000000E+00  0.00000000E+00  0.00000000E+00
  0.00000000E+00  0.00000000E+00  0.00000000E+00
  0.00000000E+00  0.00000000E+00  0.00000000E+00
  0.00000000E+00  0.00000000E+00  0.00000000E+00
  0.00000000E+00  0.00000000E+00  0.00000000E+00
  0.00000000E+00  0.00000000E+00  0.00000000E+00
  0.00000000E+00  0.00000000E+00  0.00000000E+00
  0.00000000E+00  0.00000000E+00  0.00000000E+00
  0.00000000E+00  0.00000000E+00  0.00000000E+00
  0.00000000E+00  0.00000000E+00  0.00000000E+00
  0.00000000E+00  0.00000000E+00  0.00000000E+00
  0.00000000E+00  0.00000000E+00  0.00000000E+00
  0.00000000E+00  0.00000000E+00  0.00000000E+00
  0.00000000E+00  0.00000000E+00  0.00000000E+00
  0.00000000E+00  0.00000000E+00  0.00000000E+00
  0.00000000E+00  0.00000000E+00  0.00000000E+00
  0.00000000E+00  0.00000000E+00  0.00000000E+00
  0.00000000E+00  0.00000000E+00  0.00000000E+00
  0.00000000E+00  0.00000000E+00  0.00000000E+00
  0.00000000E+00  0.00000000E+00  0.00000000E+00
  0.00000000E+00  0.00000000E+00  0.00000000E+00
  0.00000000E+00  0.00000000E+00  0.00000000E+00
  0.00000000E+00  0.00000000E+00  0.00000000E+00
  0.00000000E+00  0.00000000E+00  0.00000000E+00
  0.00000000E+00  0.00000000E+00  0.00000000E+00
  0.00000000E+00  0.00000000E+00  0.00000000E+00
  0.00000000E+00  0.00000000E+00  0.00000000E+00
  0.00000000E+00  0.00000000E+00  0.00000000E+00
  0.00000000E+00  0.00000000E+00  0.00000000E+00
  0.00000000E+00  0.00000000E+00  0.00000000E+00
  0.00000000E+00  0.00000000E+00  0.00000000E+00
  0.00000000E+00  0.00000000E+00  0.00000000E+00
  0.00000000E+00  0.00000000E+00  0.00000000E+00
  0.00000000E+00  0.00000000E+00  0.00000000E+00
  0.00000000E+00  0.00000000E+00  0.00000000E+00
  0.00000000E+00  0.00000000E+00  0.00000000E+00
  0.00000000E+00  0.00000000E+00  0.00000000E+00
  0.00000000E+00  0.00000000E+00  0.00000000E+00
  0.00000000E+00  0.00000000E+00  0.00000000E+00
  0.00000000E+00  0.00000000E+00  0.00000000E+00
  0.00000000E+00  0.00000000E+00  0.00000000E+00
  0.00000000E+00  0.00000000E+00  0.00000000E+00
  0.00000000E+00  0.00000000E+00  0.00000000E+00
  0.00000000E+00  0.00000000E+00  0.00000000E+00
  0.00000000E+00  0.00000000E+00  0.00000000E+00
  0.00000000E+00  0.00000000E+00  0.00000000E+00
  0.00000000E+00  0.00000000E+00  0.00000000E+00
  0.00000000E+00  0.00000000E+00  0.00000000E+00
  0.00000000E+00  0.00000000E+00  0.00000000E+00
  0.00000000E+00  0.00000000E+00  0.00000000E+00
  0.00000000E+00  0.00000000E+00  0.00000000E+00
  0.00000000E+00  0.00000000E+00  0.00000000E+00
  0.00000000E+00  0.00000000E+00  0.00000000E+00
  0.00000000E+00  0.00000000E+00  0.00000000E+00
  0.00000000E+00  0.00000000E+00  0.00000000E+00
  0.00000000E+00  0.00000000E+00  0.00000000E+00
