Ba10 Sr10 Co24 H4 O72                   
    1.000000000000000     
    11.1057150000000000    0.0000000000000000    0.0000000000000000
    -0.0047930000000000    5.5528550000000001    0.0000000000000000
     0.0000000000000000    0.0000000000000000   87.2902260000000041
   Ba   Sr   Co   H    O 
    10    10    24     4    72
Direct
 -0.0000791366458309  0.0010437085393340  0.5550864575371732
  0.5005837609028453  0.0006527759450545  0.5550766197004586
  0.2531375574879822  0.5009645215031817  0.6008905700168689
  0.7531159814233972  0.5008421776011658  0.6008832314959957
  0.0011012916020405  0.0004972766544920  0.4637304470831057
  0.5011977464582159  0.0004859199036502  0.4637274259597129
  0.2495848371425103  0.4964418974330532  0.5094867054534133
  0.7495900647176482  0.4963340955094139  0.5095125741463365
  0.2511915278950217  0.5002561039898701  0.4168473482767501
  0.7511318188924142  0.5003432701983984  0.4168409978487591
  0.2501872681264706  0.4951555696506474  0.5553138589224088
  0.7502683784768407  0.4952000644611639  0.5553119955660596
  0.5012069467335595  0.0081394457247637  0.6009388014255238
  0.0017622673167689  0.0090153525759482  0.6008510341252845
  0.2529108421199992  0.4994862605789569  0.4633181490683276
  0.7529157373909703  0.4993489385761422  0.4633193490921746
  0.4998939367178692  0.9925208591961601  0.5090139726675457
 -0.0000949941078161  0.9925420109624490  0.5090167519569870
  0.5002747484059089  0.0008742650980460  0.4175574785339320
  0.0003164540171454  0.0009288357463300  0.4175584516612660
  0.2490790616328587  0.0089535909007395  0.6227242696265470
  0.7495720375546401  0.0071178197043277  0.6226805099629477
  0.0015255475886269  0.5098636447346105  0.6228225240524524
  0.5015246246115603  0.5098535662977619  0.6228473236777420
 -0.0003807787595475  0.5088630739695537  0.5782087437058753
  0.4997904702420000  0.5087928349032041  0.5780890278366581
  0.2501143359952362  0.0014173268257989  0.5773864581559596
  0.7500567033753119  0.0014310264851621  0.5773879328412139
  0.2501575140350428  0.9993502594625578  0.5320600750930033
  0.7501556925006615  0.9993560222125698  0.5320591084126908
 -0.0000834889265020  0.4998395400086417  0.5320297594966005
  0.4999725864174119  0.4998256905590107  0.5320286303808700
  0.9993194398232031  0.5064441170458127  0.4863820001326255
  0.4993259518183583  0.5064222399664019  0.4863820657492511
  0.2501687861691076  0.0003477845421781  0.4866873616274051
  0.7501669779345115  0.0003298235376020  0.4866860355836983
  0.2519605561160799  0.9918841023857565  0.4408132263518097
  0.7520278311381050  0.9918183611941616  0.4407933336716978
  0.0018367957385457  0.4985844890047817  0.4411570588052908
  0.5018244342552429  0.4984789082610240  0.4411588223162800
  0.9983447480713326  0.5107859583782451  0.3953518822453572
  0.4983436479294500  0.5107843810044551  0.3953507231332635
  0.2519442782461053  0.0110271924494795  0.3953008338534520
  0.7519471784734689  0.0110320062340008  0.3952964492366030
  0.3350864472280104  0.0003037877940899  0.6468457347047790
  0.8347225314242074  0.0000811443609903  0.6466268490502338
  0.0850912404490758  0.4990152312540564  0.6468413244217663
  0.5851005416355535  0.4989840018389147  0.6468369935294918
  0.0000200926388972  0.5000514500631211  0.6004775726367761
  0.5000170086811259  0.5000322383425033  0.6004790993903105
  0.9953089486095332  0.4999321368481067  0.5531784414918797
  0.5046965834586935  0.5000505799045240  0.5531793198269387
  0.1308836664365752  0.7918064938641061  0.6225530911173822
  0.6310083031626962  0.7876628495022553  0.6228839530603324
  0.3810342120972302  0.7125971151029488  0.6228903870878870
  0.8810292708071095  0.7125977073646825  0.6228902931665360
  0.3690741006583169  0.2124385773158836  0.6228842143879184
  0.8690617874060454  0.2124155552578864  0.6224092474913604
  0.1189300604128494  0.2875702749616274  0.6228890518073851
  0.6189240747440574  0.2875503357138292  0.6228886488811681
  0.2500045860509427 -0.0000241851718767  0.5542765754899652
  0.7500051769952263 -0.0000218964689320  0.5542762592180552
  0.2500166354404803  0.0000470909447670  0.5995894479121003
  0.7499960962134619 -0.0000012391947739  0.5995894132211844
  0.3772029896911088  0.2802699388629305  0.5779939227465196
  0.8772459053026624  0.2801969697185170  0.5780222419756613
  0.1262723234991852  0.2248125077935804  0.5781146909402893
  0.6262729045008776  0.2247938142187882  0.5781160007913271
  0.1228505293929365  0.7199154660685423  0.5779871040020323
  0.6228431387663385  0.7199350766441370  0.5779985028408469
  0.3737545181828757  0.7751569714682760  0.5781146034446941
  0.8737523413310843  0.7751702903460503  0.5781158247635402
  0.9953146377525701  0.4999844782031876  0.5078614356024095
  0.4953151849862972  0.4999840653709798  0.5078614736756150
  0.0000043860724437  0.4999946976085310  0.4644883723061597
  0.5000045039951203  0.4999937422922440  0.4644883507305821
  0.1380414918539783  0.7748592677905071  0.5327964397968967
  0.6380507196019454  0.7748880130059596  0.5327945474234109
  0.3880416699051029  0.7249928228081993  0.5327919309258295
  0.8880387773294470  0.7250405879422603  0.5327880108147125
  0.3619491256766385  0.2250803836592718  0.5327948343090351
  0.8619351945355663  0.2250466574521787  0.5327919012688326
  0.1119660344053260  0.2749724564248817  0.5327896795950129
  0.6119712725704732  0.2749280391878656  0.5327861689499401
  0.2500118261608834  0.9875349280249193  0.4635246319719157
  0.7500120153744070  0.9875352272541583  0.4635246445216017
  0.2499976237234622  0.9875885229635555  0.5088449056901206
  0.7499976637770992  0.9875879433865424  0.5088449809700044
  0.3928106218791898  0.2624821632628034  0.4869553350936582
  0.8928105956832134  0.2624824888816719  0.4869553736458590
  0.1428715278841741  0.2373988789722564  0.4864754367127805
  0.6428721343415118  0.2373986170046770  0.4864754447649582
  0.1072223812935271  0.7375660452422099  0.4869576344800609
  0.6072223933375468  0.7375657239335660  0.4869576696842599
  0.3571895455231111  0.7625169271265962  0.4864750218222579
  0.8571890370667646  0.7625168299336231  0.4864750451528155
  0.0000151921221240  0.4999824788919372  0.4191615230919843
  0.5000159833809826  0.4999849891347343  0.4191615904296137
  0.1379932826303293  0.7748496868679553  0.4406233770990555
  0.6379951434015464  0.7748527094094289  0.4406233042728088
  0.3857905654491109  0.7249650794643860  0.4406341558236245
  0.8857911537978664  0.7249691511084756  0.4406339504092175
  0.3619503207053444  0.2249056703008090  0.4406278913028946
  0.8619473383313606  0.2249047189412122  0.4406277026672580
  0.1142579635348483  0.2749520579636565  0.4406361910993868
  0.6142610260285204  0.2749566456641276  0.4406364285296162
  0.2499927496962416 -0.0000371640589985  0.4167696904346000
  0.7499927357263899 -0.0000362873154857  0.4167697436023695
  0.3881849187098018  0.2751390022115656  0.3937632760140788
  0.8881848866368373  0.2751390253591958  0.3937632613075362
  0.1380898810608195  0.2248333892189507  0.3937528025209227
  0.6380897922898362  0.2248336905313346  0.3937527703435579
  0.1118329985623325  0.7249588355729341  0.3937611266470305
  0.6118330556685302  0.7249593393685063  0.3937610977471614
  0.3619317578822031  0.7752504908186648  0.3937536522256932
  0.8619317776631473  0.7752505885936954  0.3937536217425292
  0.2499768807588581  0.0124325869438745  0.6432276631302677
  0.7499089073503353  0.0124586721624603  0.6432233352913265
  0.0000132138491956  0.5124637438188225  0.6432271974614300
  0.5000071277617066  0.5124639966595028  0.6432281910115791
 
  0.00000000E+00  0.00000000E+00  0.00000000E+00
  0.00000000E+00  0.00000000E+00  0.00000000E+00
  0.00000000E+00  0.00000000E+00  0.00000000E+00
  0.00000000E+00  0.00000000E+00  0.00000000E+00
  0.00000000E+00  0.00000000E+00  0.00000000E+00
  0.00000000E+00  0.00000000E+00  0.00000000E+00
  0.00000000E+00  0.00000000E+00  0.00000000E+00
  0.00000000E+00  0.00000000E+00  0.00000000E+00
  0.00000000E+00  0.00000000E+00  0.00000000E+00
  0.00000000E+00  0.00000000E+00  0.00000000E+00
  0.00000000E+00  0.00000000E+00  0.00000000E+00
  0.00000000E+00  0.00000000E+00  0.00000000E+00
  0.00000000E+00  0.00000000E+00  0.00000000E+00
  0.00000000E+00  0.00000000E+00  0.00000000E+00
  0.00000000E+00  0.00000000E+00  0.00000000E+00
  0.00000000E+00  0.00000000E+00  0.00000000E+00
  0.00000000E+00  0.00000000E+00  0.00000000E+00
  0.00000000E+00  0.00000000E+00  0.00000000E+00
  0.00000000E+00  0.00000000E+00  0.00000000E+00
  0.00000000E+00  0.00000000E+00  0.00000000E+00
  0.00000000E+00  0.00000000E+00  0.00000000E+00
  0.00000000E+00  0.00000000E+00  0.00000000E+00
  0.00000000E+00  0.00000000E+00  0.00000000E+00
  0.00000000E+00  0.00000000E+00  0.00000000E+00
  0.00000000E+00  0.00000000E+00  0.00000000E+00
  0.00000000E+00  0.00000000E+00  0.00000000E+00
  0.00000000E+00  0.00000000E+00  0.00000000E+00
  0.00000000E+00  0.00000000E+00  0.00000000E+00
  0.00000000E+00  0.00000000E+00  0.00000000E+00
  0.00000000E+00  0.00000000E+00  0.00000000E+00
  0.00000000E+00  0.00000000E+00  0.00000000E+00
  0.00000000E+00  0.00000000E+00  0.00000000E+00
  0.00000000E+00  0.00000000E+00  0.00000000E+00
  0.00000000E+00  0.00000000E+00  0.00000000E+00
  0.00000000E+00  0.00000000E+00  0.00000000E+00
  0.00000000E+00  0.00000000E+00  0.00000000E+00
  0.00000000E+00  0.00000000E+00  0.00000000E+00
  0.00000000E+00  0.00000000E+00  0.00000000E+00
  0.00000000E+00  0.00000000E+00  0.00000000E+00
  0.00000000E+00  0.00000000E+00  0.00000000E+00
  0.00000000E+00  0.00000000E+00  0.00000000E+00
  0.00000000E+00  0.00000000E+00  0.00000000E+00
  0.00000000E+00  0.00000000E+00  0.00000000E+00
  0.00000000E+00  0.00000000E+00  0.00000000E+00
  0.00000000E+00  0.00000000E+00  0.00000000E+00
  0.00000000E+00  0.00000000E+00  0.00000000E+00
  0.00000000E+00  0.00000000E+00  0.00000000E+00
  0.00000000E+00  0.00000000E+00  0.00000000E+00
  0.00000000E+00  0.00000000E+00  0.00000000E+00
  0.00000000E+00  0.00000000E+00  0.00000000E+00
  0.00000000E+00  0.00000000E+00  0.00000000E+00
  0.00000000E+00  0.00000000E+00  0.00000000E+00
  0.00000000E+00  0.00000000E+00  0.00000000E+00
  0.00000000E+00  0.00000000E+00  0.00000000E+00
  0.00000000E+00  0.00000000E+00  0.00000000E+00
  0.00000000E+00  0.00000000E+00  0.00000000E+00
  0.00000000E+00  0.00000000E+00  0.00000000E+00
  0.00000000E+00  0.00000000E+00  0.00000000E+00
  0.00000000E+00  0.00000000E+00  0.00000000E+00
  0.00000000E+00  0.00000000E+00  0.00000000E+00
  0.00000000E+00  0.00000000E+00  0.00000000E+00
  0.00000000E+00  0.00000000E+00  0.00000000E+00
  0.00000000E+00  0.00000000E+00  0.00000000E+00
  0.00000000E+00  0.00000000E+00  0.00000000E+00
  0.00000000E+00  0.00000000E+00  0.00000000E+00
  0.00000000E+00  0.00000000E+00  0.00000000E+00
  0.00000000E+00  0.00000000E+00  0.00000000E+00
  0.00000000E+00  0.00000000E+00  0.00000000E+00
  0.00000000E+00  0.00000000E+00  0.00000000E+00
  0.00000000E+00  0.00000000E+00  0.00000000E+00
  0.00000000E+00  0.00000000E+00  0.00000000E+00
  0.00000000E+00  0.00000000E+00  0.00000000E+00
  0.00000000E+00  0.00000000E+00  0.00000000E+00
  0.00000000E+00  0.00000000E+00  0.00000000E+00
  0.00000000E+00  0.00000000E+00  0.00000000E+00
  0.00000000E+00  0.00000000E+00  0.00000000E+00
  0.00000000E+00  0.00000000E+00  0.00000000E+00
  0.00000000E+00  0.00000000E+00  0.00000000E+00
  0.00000000E+00  0.00000000E+00  0.00000000E+00
  0.00000000E+00  0.00000000E+00  0.00000000E+00
  0.00000000E+00  0.00000000E+00  0.00000000E+00
  0.00000000E+00  0.00000000E+00  0.00000000E+00
  0.00000000E+00  0.00000000E+00  0.00000000E+00
  0.00000000E+00  0.00000000E+00  0.00000000E+00
  0.00000000E+00  0.00000000E+00  0.00000000E+00
  0.00000000E+00  0.00000000E+00  0.00000000E+00
  0.00000000E+00  0.00000000E+00  0.00000000E+00
  0.00000000E+00  0.00000000E+00  0.00000000E+00
  0.00000000E+00  0.00000000E+00  0.00000000E+00
  0.00000000E+00  0.00000000E+00  0.00000000E+00
  0.00000000E+00  0.00000000E+00  0.00000000E+00
  0.00000000E+00  0.00000000E+00  0.00000000E+00
  0.00000000E+00  0.00000000E+00  0.00000000E+00
  0.00000000E+00  0.00000000E+00  0.00000000E+00
  0.00000000E+00  0.00000000E+00  0.00000000E+00
  0.00000000E+00  0.00000000E+00  0.00000000E+00
  0.00000000E+00  0.00000000E+00  0.00000000E+00
  0.00000000E+00  0.00000000E+00  0.00000000E+00
  0.00000000E+00  0.00000000E+00  0.00000000E+00
  0.00000000E+00  0.00000000E+00  0.00000000E+00
  0.00000000E+00  0.00000000E+00  0.00000000E+00
  0.00000000E+00  0.00000000E+00  0.00000000E+00
  0.00000000E+00  0.00000000E+00  0.00000000E+00
  0.00000000E+00  0.00000000E+00  0.00000000E+00
  0.00000000E+00  0.00000000E+00  0.00000000E+00
  0.00000000E+00  0.00000000E+00  0.00000000E+00
  0.00000000E+00  0.00000000E+00  0.00000000E+00
  0.00000000E+00  0.00000000E+00  0.00000000E+00
  0.00000000E+00  0.00000000E+00  0.00000000E+00
  0.00000000E+00  0.00000000E+00  0.00000000E+00
  0.00000000E+00  0.00000000E+00  0.00000000E+00
  0.00000000E+00  0.00000000E+00  0.00000000E+00
  0.00000000E+00  0.00000000E+00  0.00000000E+00
  0.00000000E+00  0.00000000E+00  0.00000000E+00
  0.00000000E+00  0.00000000E+00  0.00000000E+00
  0.00000000E+00  0.00000000E+00  0.00000000E+00
  0.00000000E+00  0.00000000E+00  0.00000000E+00
  0.00000000E+00  0.00000000E+00  0.00000000E+00
  0.00000000E+00  0.00000000E+00  0.00000000E+00
  0.00000000E+00  0.00000000E+00  0.00000000E+00
