H8 Ir32 O72                             
   1.00000000000000     
     9.0898780000000006    0.0000000000000000    0.0000000000000000
     0.0000000000000000   11.1045669999999994   -0.0793000000000000
     0.0000000000000000    0.0000000000000000   31.3300599999999996
   H    Ir   O 
     8    32    72
Direct
  0.3285455320105477  0.4397864133161387  0.6916528707757290
  0.3285441336118809  0.9397858577490126  0.6916528890467440
  0.8285452402095197  0.4397863601410298  0.6916528290088454
  0.8285449884507966  0.9397862428292089  0.6916528751027611
  0.9151924280616239  0.1892766041741745  0.6913001936377117
  0.9151923975712141  0.6892762897669926  0.6913003794677967
  0.4151920413467450  0.1892770500168564  0.6912998989961237
  0.4151916396070544  0.6892767916014912  0.6912996413492000
  0.2641079823046734  0.3281503427976102  0.3750376321429199
  0.2641078325190406  0.8281503445992919  0.3750376227210726
  0.7641080958149400  0.3281502313062931  0.3750376456571518
  0.7641078308592253  0.8281504691539556  0.3750376382604070
  0.9906409618908147  0.0778246510125269  0.3749264966614835
  0.9906410672541628  0.5778247979148571  0.3749265932849074
  0.4906409693172711  0.0778246859304399  0.3749265131531260
  0.4906408602709758  0.5778247212021361  0.3749264852232662
  0.2486181968877175  0.0019616572474384  0.4573247971026760
  0.2486183112315046  0.5019608080764592  0.4573244990281933
  0.7486182177308998  0.0019608449408751  0.4573246812184267
  0.7486182691750219  0.5019603085374672  0.4573242921705287
  0.0025971223740386  0.2518750880371941  0.4575845509964070
  0.0025954930605858  0.7518758107582751  0.4575846048749732
  0.5025962829191932  0.2518753630113921  0.4575844537771884
  0.5025951844414678  0.7518763516640180  0.4575844210655536
  0.2501391337928649  0.1645332380052877  0.5418066503280227
  0.2501423747053222  0.6645303072679444  0.5418062791813955
  0.7501387816581243  0.1645330905649380  0.5418059026208306
  0.7501378620242727  0.6645277573091469  0.5418055450339577
  0.0001692002666061  0.4142968044300852  0.5418712116018324
  0.0001693276026520  0.9142963486264875  0.5418710517059647
  0.5001701743620809  0.4142963380386644  0.5418705962803686
  0.5001708968571716  0.9142968080164943  0.5418709752373683
  0.2409070513597359  0.3376373890127637  0.6261430327226106
  0.2409063790680568  0.8376383934271671  0.6261431329077278
  0.7409075052454154  0.3376366831212461  0.6261434662493198
  0.7409065241252870  0.8376363296696918  0.6261431637272276
  0.0067943053696235  0.0879955225628743  0.6261421715735694
  0.0067981571008213  0.5880008358805547  0.6261459610357345
  0.5067976413709855  0.0879901160541101  0.6261462150959251
  0.5067949817952578  0.5879903393731535  0.6261419741747649
  0.3500642708521427  0.1886746768639442  0.3510273009944901
  0.3500642555982368  0.6886746560075802  0.3510272919997199
  0.8500642726863075  0.1886746690097978  0.3510273014406435
  0.8500642606100250  0.6886746715247943  0.3510272992225815
  0.0958746383240355  0.2317728940374569  0.3993246693854462
  0.0958744792999483  0.7317729038924250  0.3993246810495760
  0.5958746078397340  0.2317728935299454  0.3993246670079598
  0.5958745293765325  0.7317729269077345  0.3993246629155317
  0.1533304025286457  0.4815778381977601  0.3992695154498598
  0.1533303614718476  0.9815778037923593  0.3992695240345679
  0.6533303402544175  0.4815778241446329  0.3992695050497726
  0.6533303689016191  0.9815777977266064  0.3992695118755564
  0.4042958081831657  0.4347989187199975  0.3493818213255178
  0.4042958152414939  0.9347989819122766  0.3493817811295357
  0.9042957707917620  0.4347989578543572  0.3493818259736772
  0.9042958032428385  0.9347989155015836  0.3493818219034402
  0.3429431900038856  0.3531472497461696  0.4339931841402951
  0.3429440995338576  0.8531471880261490  0.4339930074915396
  0.8429432525261554  0.3531472251182927  0.4339931820679126
  0.8429441792959336  0.8531472021037727  0.4339930091305314
  0.0958344498056386  0.4004303335172781  0.4844945092919756
  0.0958348037434117  0.9004307460399037  0.4844946916020387
  0.5958345845610408  0.4004305036348821  0.4844945744939599
  0.5958345477911032  0.9004304387295525  0.4844945704680384
  0.1532663805410747  0.1487726425875214  0.4840254857978509
  0.1532663493121716  0.6487725716987719  0.4840251207929642
  0.6532663196990204  0.1487726192438638  0.4840254364067306
  0.6532661539933133  0.6487724334101249  0.4840254163232487
  0.4042827641183860  0.1019316177248730  0.4333481148412118
  0.4042827062916302  0.6019315567247511  0.4333480953752242
  0.9042827077232346  0.1019315535782586  0.4333481005293075
  0.9042824279757151  0.6019313320652447  0.4333480841285592
  0.3468755618303067  0.0176827659817360  0.5159748197226144
  0.3468758328102755  0.5176822699089823  0.5159754118341517
  0.8468754948834398  0.0176824517361730  0.5159754130258003
  0.8468759778127055  0.5176824035306252  0.5159754905792432
  0.0958191288162463  0.0648598501385901  0.5667448484328788
  0.0958193309709487  0.5648601530414504  0.5667449747194698
  0.5958192558476487  0.0648593983152103  0.5667449033655833
  0.5958191857424764  0.5648590678459087  0.5667446950675396
  0.1570206348037361  0.3135317966521565  0.5660429674513602
  0.1570206431091940  0.8135313031098066  0.5660428268595417
  0.6570195722597439  0.3135322232399388  0.5660428623277766
  0.6570206585973607  0.8135309063600192  0.5660424767381375
  0.4042556257426254  0.2662081051531799  0.5154998894783713
  0.4042557197243233  0.7662081722811865  0.5154999040612429
  0.9042556044680183  0.2662080878372981  0.5154998688384297
  0.9042554491590298  0.7662079970248895  0.5154998652078553
  0.3430371181439863  0.1865460568326952  0.6006451765524643
  0.3430331805876297  0.6865431343010029  0.6006469934909713
  0.8430358398539930  0.1865454259304277  0.6006462487552504
  0.8430346261678783  0.6865446959698021  0.6006455765859831
  0.0971449534949993  0.2324627365986695  0.6488097026463500
  0.0971447530331415  0.7324634201178452  0.6488098866932572
  0.5971504745843191  0.2324620837885707  0.6488107339501360
  0.5971508695218584  0.7324603413208227  0.6488102419323788
  0.1500366048851052  0.4833230413928797  0.6477621851676959
  0.1500360033298664  0.9833216498734408  0.6477622224772801
  0.6500364155279009  0.4833221638021353  0.6477622897567235
  0.6500361412389577  0.9833216178325845  0.6477624100365089
  0.4040031372223198  0.4352411629670959  0.6000362609507783
  0.4040034299074472  0.9352414281789886  0.6000363566926689
  0.9040032383143002  0.4352413275097776  0.6000363431282073
  0.9040030292556438  0.9352411753637746  0.6000362879917136
  0.3391932121551272  0.3553417411626864  0.6812125687731684
  0.3391955292896767  0.8553398562691952  0.6812126363535432
  0.8391932298349766  0.3553418130336317  0.6812125823587647
  0.8391951763351232  0.8553402460343076  0.6812126460078844
  0.9069441178398040  0.1054520627344818  0.6803000703311038
  0.9069439866392492  0.6054525149000423  0.6803003395090951
  0.4069438459152757  0.1054522582959711  0.6803002724321819
  0.4069441325997774  0.6054521629135958  0.6803001518767723
 
  0.00000000E+00  0.00000000E+00  0.00000000E+00
  0.00000000E+00  0.00000000E+00  0.00000000E+00
  0.00000000E+00  0.00000000E+00  0.00000000E+00
  0.00000000E+00  0.00000000E+00  0.00000000E+00
  0.00000000E+00  0.00000000E+00  0.00000000E+00
  0.00000000E+00  0.00000000E+00  0.00000000E+00
  0.00000000E+00  0.00000000E+00  0.00000000E+00
  0.00000000E+00  0.00000000E+00  0.00000000E+00
  0.00000000E+00  0.00000000E+00  0.00000000E+00
  0.00000000E+00  0.00000000E+00  0.00000000E+00
  0.00000000E+00  0.00000000E+00  0.00000000E+00
  0.00000000E+00  0.00000000E+00  0.00000000E+00
  0.00000000E+00  0.00000000E+00  0.00000000E+00
  0.00000000E+00  0.00000000E+00  0.00000000E+00
  0.00000000E+00  0.00000000E+00  0.00000000E+00
  0.00000000E+00  0.00000000E+00  0.00000000E+00
  0.00000000E+00  0.00000000E+00  0.00000000E+00
  0.00000000E+00  0.00000000E+00  0.00000000E+00
  0.00000000E+00  0.00000000E+00  0.00000000E+00
  0.00000000E+00  0.00000000E+00  0.00000000E+00
  0.00000000E+00  0.00000000E+00  0.00000000E+00
  0.00000000E+00  0.00000000E+00  0.00000000E+00
  0.00000000E+00  0.00000000E+00  0.00000000E+00
  0.00000000E+00  0.00000000E+00  0.00000000E+00
  0.00000000E+00  0.00000000E+00  0.00000000E+00
  0.00000000E+00  0.00000000E+00  0.00000000E+00
  0.00000000E+00  0.00000000E+00  0.00000000E+00
  0.00000000E+00  0.00000000E+00  0.00000000E+00
  0.00000000E+00  0.00000000E+00  0.00000000E+00
  0.00000000E+00  0.00000000E+00  0.00000000E+00
  0.00000000E+00  0.00000000E+00  0.00000000E+00
  0.00000000E+00  0.00000000E+00  0.00000000E+00
  0.00000000E+00  0.00000000E+00  0.00000000E+00
  0.00000000E+00  0.00000000E+00  0.00000000E+00
  0.00000000E+00  0.00000000E+00  0.00000000E+00
  0.00000000E+00  0.00000000E+00  0.00000000E+00
  0.00000000E+00  0.00000000E+00  0.00000000E+00
  0.00000000E+00  0.00000000E+00  0.00000000E+00
  0.00000000E+00  0.00000000E+00  0.00000000E+00
  0.00000000E+00  0.00000000E+00  0.00000000E+00
  0.00000000E+00  0.00000000E+00  0.00000000E+00
  0.00000000E+00  0.00000000E+00  0.00000000E+00
  0.00000000E+00  0.00000000E+00  0.00000000E+00
  0.00000000E+00  0.00000000E+00  0.00000000E+00
  0.00000000E+00  0.00000000E+00  0.00000000E+00
  0.00000000E+00  0.00000000E+00  0.00000000E+00
  0.00000000E+00  0.00000000E+00  0.00000000E+00
  0.00000000E+00  0.00000000E+00  0.00000000E+00
  0.00000000E+00  0.00000000E+00  0.00000000E+00
  0.00000000E+00  0.00000000E+00  0.00000000E+00
  0.00000000E+00  0.00000000E+00  0.00000000E+00
  0.00000000E+00  0.00000000E+00  0.00000000E+00
  0.00000000E+00  0.00000000E+00  0.00000000E+00
  0.00000000E+00  0.00000000E+00  0.00000000E+00
  0.00000000E+00  0.00000000E+00  0.00000000E+00
  0.00000000E+00  0.00000000E+00  0.00000000E+00
  0.00000000E+00  0.00000000E+00  0.00000000E+00
  0.00000000E+00  0.00000000E+00  0.00000000E+00
  0.00000000E+00  0.00000000E+00  0.00000000E+00
  0.00000000E+00  0.00000000E+00  0.00000000E+00
  0.00000000E+00  0.00000000E+00  0.00000000E+00
  0.00000000E+00  0.00000000E+00  0.00000000E+00
  0.00000000E+00  0.00000000E+00  0.00000000E+00
  0.00000000E+00  0.00000000E+00  0.00000000E+00
  0.00000000E+00  0.00000000E+00  0.00000000E+00
  0.00000000E+00  0.00000000E+00  0.00000000E+00
  0.00000000E+00  0.00000000E+00  0.00000000E+00
  0.00000000E+00  0.00000000E+00  0.00000000E+00
  0.00000000E+00  0.00000000E+00  0.00000000E+00
  0.00000000E+00  0.00000000E+00  0.00000000E+00
  0.00000000E+00  0.00000000E+00  0.00000000E+00
  0.00000000E+00  0.00000000E+00  0.00000000E+00
  0.00000000E+00  0.00000000E+00  0.00000000E+00
  0.00000000E+00  0.00000000E+00  0.00000000E+00
  0.00000000E+00  0.00000000E+00  0.00000000E+00
  0.00000000E+00  0.00000000E+00  0.00000000E+00
  0.00000000E+00  0.00000000E+00  0.00000000E+00
  0.00000000E+00  0.00000000E+00  0.00000000E+00
  0.00000000E+00  0.00000000E+00  0.00000000E+00
  0.00000000E+00  0.00000000E+00  0.00000000E+00
  0.00000000E+00  0.00000000E+00  0.00000000E+00
  0.00000000E+00  0.00000000E+00  0.00000000E+00
  0.00000000E+00  0.00000000E+00  0.00000000E+00
  0.00000000E+00  0.00000000E+00  0.00000000E+00
  0.00000000E+00  0.00000000E+00  0.00000000E+00
  0.00000000E+00  0.00000000E+00  0.00000000E+00
  0.00000000E+00  0.00000000E+00  0.00000000E+00
  0.00000000E+00  0.00000000E+00  0.00000000E+00
  0.00000000E+00  0.00000000E+00  0.00000000E+00
  0.00000000E+00  0.00000000E+00  0.00000000E+00
  0.00000000E+00  0.00000000E+00  0.00000000E+00
  0.00000000E+00  0.00000000E+00  0.00000000E+00
  0.00000000E+00  0.00000000E+00  0.00000000E+00
  0.00000000E+00  0.00000000E+00  0.00000000E+00
  0.00000000E+00  0.00000000E+00  0.00000000E+00
  0.00000000E+00  0.00000000E+00  0.00000000E+00
  0.00000000E+00  0.00000000E+00  0.00000000E+00
  0.00000000E+00  0.00000000E+00  0.00000000E+00
  0.00000000E+00  0.00000000E+00  0.00000000E+00
  0.00000000E+00  0.00000000E+00  0.00000000E+00
  0.00000000E+00  0.00000000E+00  0.00000000E+00
  0.00000000E+00  0.00000000E+00  0.00000000E+00
  0.00000000E+00  0.00000000E+00  0.00000000E+00
  0.00000000E+00  0.00000000E+00  0.00000000E+00
  0.00000000E+00  0.00000000E+00  0.00000000E+00
  0.00000000E+00  0.00000000E+00  0.00000000E+00
  0.00000000E+00  0.00000000E+00  0.00000000E+00
  0.00000000E+00  0.00000000E+00  0.00000000E+00
  0.00000000E+00  0.00000000E+00  0.00000000E+00
  0.00000000E+00  0.00000000E+00  0.00000000E+00
  0.00000000E+00  0.00000000E+00  0.00000000E+00
  0.00000000E+00  0.00000000E+00  0.00000000E+00
