H8 Ir32 O72                             
   1.00000000000000     
     9.0898780000000006    0.0000000000000000    0.0000000000000000
     0.0000000000000000   11.1045669999999994   -0.0793000000000000
     0.0000000000000000    0.0000000000000000   31.3300599999999996
   H    Ir   O 
     8    32    72
Direct
  0.4445242714075783  0.3414918044567541  0.6822082699779597
  0.4445204037625545  0.8414925818733600  0.6822113501056462
  0.9445231142832750  0.3414928551400905  0.6822092131660846
  0.9445229997848245  0.8414919350983090  0.6822088613890093
  0.0015512359918897  0.1216144176603721  0.7010509497386332
  0.0015716995145282  0.6215817601532944  0.7010497208293124
  0.5015541602599959  0.1216144343211776  0.7010505211482092
  0.5015736851425472  0.6215773141308324  0.7010499999957540
  0.2643089126582701  0.3278206902041081  0.3750750540056715
  0.2643089955517761  0.8278180205597986  0.3750740671631084
  0.7643098346327802  0.3278192314306690  0.3750752818142664
  0.7643096038206180  0.8278197851062212  0.3750749020810384
  0.9908511129601464  0.0775422906946366  0.3749475013008813
  0.9908526805863476  0.5775440971677696  0.3749483835597129
  0.4908529066764441  0.0775441924741261  0.3749480787835836
  0.4908523857429974  0.5775424682526645  0.3749474124904651
  0.2489204970954486  0.0013524187300416  0.4573024845278933
  0.2489278420662650  0.5013727884901644  0.4573092800933372
  0.7489236387317361  0.0013739833322022  0.4573080777751832
  0.7489147113177658  0.5013770804247805  0.4573065339172708
  0.0032433495329739  0.2511681551282469  0.4576110423397523
  0.0032200201818002  0.7511800855992155  0.4576112012269229
  0.5032161445812419  0.2511812546746547  0.4576093504615689
  0.5032260906431535  0.7511885593270281  0.4576099578943296
  0.2510443039891612  0.1656470038313771  0.5412795176913844
  0.2510708053695306  0.6656401598420023  0.5412940808976306
  0.7510649969059436  0.1656476183804131  0.5412911354300549
  0.7510465194417805  0.6656596030742029  0.5412816408573240
 -0.0003971847567283  0.4143178536646913  0.5417757993965435
 -0.0003981747401477  0.9143163152671934  0.5417764404162381
  0.4996040884276041  0.4143156285687488  0.5417758150539626
  0.4996029653150237  0.9143175419138401  0.5417767261330632
  0.2455485561249629  0.3362032168019404  0.6258661375863039
  0.2455480960450056  0.8362048582003445  0.6258673689947818
  0.7455477090829749  0.3362041363375145  0.6258675566849627
  0.7455484367473543  0.8362025533160932  0.6258667531822241
  0.0078498630649380  0.0874769766011952  0.6252773735601812
  0.0078486780921021  0.5874797931244069  0.6252766914503702
  0.5078486736007370  0.0874783287122957  0.6252770860516752
  0.5078545112910576  0.5874776641325390  0.6252767214592584
  0.3500916534150733  0.1885854705661546  0.3510124686344841
  0.3500936288266861  0.6885848305306045  0.3510128451988542
  0.8500916260757980  0.1885852432589196  0.3510123952900484
  0.8500936780082395  0.6885850938433773  0.3510129042299487
  0.0960382761048661  0.2316944569859455  0.3993272371955670
  0.0960351276093001  0.7316949035051700  0.3993273759257420
  0.5960357753140387  0.2316949134349021  0.3993273282049094
  0.5960366773581284  0.7316947552360039  0.3993272604860079
  0.1534222237994830  0.4815307285691252  0.3992764942080412
  0.1534207249863531  0.9815301145460510  0.3992759961025437
  0.6534210973694785  0.4815305909806682  0.3992763046239409
  0.6534218603346845  0.9815306936029372  0.3992763595118463
  0.4044024927985527  0.4345941731079483  0.3493776893797241
  0.4044020405978554  0.9345945960125350  0.3493777162777653
  0.9044019332561203  0.4345945561523017  0.3493777683501006
  0.9044025833710191  0.9345939167018203  0.3493776497068802
  0.3431130219517872  0.3530936818853735  0.4339939486555869
  0.3431115893854326  0.8530930531183342  0.4339938599082267
  0.8431128383640637  0.3530934014509692  0.4339940036855385
  0.8431110739799182  0.8530951654645876  0.4339939534305793
  0.0958572173544609  0.4003770487254079  0.4844893670459984
  0.0958565865843455  0.9003766597788927  0.4844892976252778
  0.5958646832675917  0.4003856685121009  0.4844933693507690
  0.5958577005248813  0.9003780231066875  0.4844894217302037
  0.1540810188043289  0.1484130621808528  0.4838149902134961
  0.1540842144591632  0.6484127993276839  0.4838182176889830
  0.6540885107686599  0.1484121307387097  0.4838201702935365
  0.6540854328770230  0.6484477003822282  0.4838222735955037
  0.4043009512826527  0.1018713493601552  0.4333236826253154
  0.4043147441014998  0.6018714362014974  0.4333241438878734
  0.9043022453375849  0.1018720331094075  0.4333235841617529
  0.9043013752027284  0.6018721141343981  0.4333238863575306
  0.3469513906289210  0.0176997765007002  0.5159681796199174
  0.3469551921175873  0.5177035688203705  0.5159687302082623
  0.8469666037538989  0.0177084448884872  0.5159702301310658
  0.8469482982728107  0.5177050822424957  0.5159651042394203
  0.0955282546228499  0.0650892800681765  0.5660237123096439
  0.0955280501014474  0.5650900157884551  0.5660238436864737
  0.5955280441139740  0.0650888610277635  0.5660241264370131
  0.5955288762542611  0.5650894864493287  0.5660237179674846
  0.1506206591927438  0.3123997503147804  0.5661131760510275
  0.1506228596057033  0.8124020347814207  0.5661139813309091
  0.6506225929219167  0.3124008869904405  0.5661138795199899
  0.6506222939559235  0.8124022214303201  0.5661141481795562
  0.4043068179694604  0.2662090848148550  0.5154863333264665
  0.4043072502267469  0.7662097414837690  0.5154866166198442
  0.9043085878226670  0.2662081511517330  0.5154865691844972
  0.9043074535504010  0.7662100246157385  0.5154866575867494
  0.3450641368984798  0.1865640251344042  0.6002073757579498
  0.3450647350439301  0.6865638117412123  0.6002093780331536
  0.8450655224717023  0.1865638212962473  0.6002086241159849
  0.8450654219888317  0.6865632993317548  0.6002076933213134
  0.0972924868906971  0.2323490031974753  0.6487897477466443
  0.0972945812593451  0.7323493560829196  0.6487889067149137
  0.5972936076167428  0.2323473978255557  0.6487894844776536
  0.5972944034102914  0.7323472564260146  0.6487892690862472
  0.1500715857749866  0.4832277350121188  0.6477166066417662
  0.1500738179199093  0.9832267934186287  0.6477169723615225
  0.6500724060838827  0.4832272909942691  0.6477169825287935
  0.6500726983135358  0.9832267385044209  0.6477169545590656
  0.4042156314801388  0.4351926019254614  0.5999619340151086
  0.4042237150837845  0.9351969569575941  0.5999651480354621
  0.9042235943114297  0.4351969454564943  0.5999651294069612
  0.9042255771368284  0.9351997612052177  0.5999662098058983
  0.3376813608033913  0.3577017515058522  0.6817353557918671
  0.3376805297850624  0.8577033865820236  0.6817352346060640
  0.8376818226340804  0.3577054033401902  0.6817355195568200
  0.8376817750072991  0.8577009338259290  0.6817354382444668
  0.9214459236231807  0.0937164369373371  0.6821955889247239
  0.9214461558581971  0.5937174412946867  0.6821951104693429
  0.4214465315120802  0.0937169325652349  0.6821956012791098
  0.4214470095807891  0.5937186873590371  0.6821954239066714
 
  0.00000000E+00  0.00000000E+00  0.00000000E+00
  0.00000000E+00  0.00000000E+00  0.00000000E+00
  0.00000000E+00  0.00000000E+00  0.00000000E+00
  0.00000000E+00  0.00000000E+00  0.00000000E+00
  0.00000000E+00  0.00000000E+00  0.00000000E+00
  0.00000000E+00  0.00000000E+00  0.00000000E+00
  0.00000000E+00  0.00000000E+00  0.00000000E+00
  0.00000000E+00  0.00000000E+00  0.00000000E+00
  0.00000000E+00  0.00000000E+00  0.00000000E+00
  0.00000000E+00  0.00000000E+00  0.00000000E+00
  0.00000000E+00  0.00000000E+00  0.00000000E+00
  0.00000000E+00  0.00000000E+00  0.00000000E+00
  0.00000000E+00  0.00000000E+00  0.00000000E+00
  0.00000000E+00  0.00000000E+00  0.00000000E+00
  0.00000000E+00  0.00000000E+00  0.00000000E+00
  0.00000000E+00  0.00000000E+00  0.00000000E+00
  0.00000000E+00  0.00000000E+00  0.00000000E+00
  0.00000000E+00  0.00000000E+00  0.00000000E+00
  0.00000000E+00  0.00000000E+00  0.00000000E+00
  0.00000000E+00  0.00000000E+00  0.00000000E+00
  0.00000000E+00  0.00000000E+00  0.00000000E+00
  0.00000000E+00  0.00000000E+00  0.00000000E+00
  0.00000000E+00  0.00000000E+00  0.00000000E+00
  0.00000000E+00  0.00000000E+00  0.00000000E+00
  0.00000000E+00  0.00000000E+00  0.00000000E+00
  0.00000000E+00  0.00000000E+00  0.00000000E+00
  0.00000000E+00  0.00000000E+00  0.00000000E+00
  0.00000000E+00  0.00000000E+00  0.00000000E+00
  0.00000000E+00  0.00000000E+00  0.00000000E+00
  0.00000000E+00  0.00000000E+00  0.00000000E+00
  0.00000000E+00  0.00000000E+00  0.00000000E+00
  0.00000000E+00  0.00000000E+00  0.00000000E+00
  0.00000000E+00  0.00000000E+00  0.00000000E+00
  0.00000000E+00  0.00000000E+00  0.00000000E+00
  0.00000000E+00  0.00000000E+00  0.00000000E+00
  0.00000000E+00  0.00000000E+00  0.00000000E+00
  0.00000000E+00  0.00000000E+00  0.00000000E+00
  0.00000000E+00  0.00000000E+00  0.00000000E+00
  0.00000000E+00  0.00000000E+00  0.00000000E+00
  0.00000000E+00  0.00000000E+00  0.00000000E+00
  0.00000000E+00  0.00000000E+00  0.00000000E+00
  0.00000000E+00  0.00000000E+00  0.00000000E+00
  0.00000000E+00  0.00000000E+00  0.00000000E+00
  0.00000000E+00  0.00000000E+00  0.00000000E+00
  0.00000000E+00  0.00000000E+00  0.00000000E+00
  0.00000000E+00  0.00000000E+00  0.00000000E+00
  0.00000000E+00  0.00000000E+00  0.00000000E+00
  0.00000000E+00  0.00000000E+00  0.00000000E+00
  0.00000000E+00  0.00000000E+00  0.00000000E+00
  0.00000000E+00  0.00000000E+00  0.00000000E+00
  0.00000000E+00  0.00000000E+00  0.00000000E+00
  0.00000000E+00  0.00000000E+00  0.00000000E+00
  0.00000000E+00  0.00000000E+00  0.00000000E+00
  0.00000000E+00  0.00000000E+00  0.00000000E+00
  0.00000000E+00  0.00000000E+00  0.00000000E+00
  0.00000000E+00  0.00000000E+00  0.00000000E+00
  0.00000000E+00  0.00000000E+00  0.00000000E+00
  0.00000000E+00  0.00000000E+00  0.00000000E+00
  0.00000000E+00  0.00000000E+00  0.00000000E+00
  0.00000000E+00  0.00000000E+00  0.00000000E+00
  0.00000000E+00  0.00000000E+00  0.00000000E+00
  0.00000000E+00  0.00000000E+00  0.00000000E+00
  0.00000000E+00  0.00000000E+00  0.00000000E+00
  0.00000000E+00  0.00000000E+00  0.00000000E+00
  0.00000000E+00  0.00000000E+00  0.00000000E+00
  0.00000000E+00  0.00000000E+00  0.00000000E+00
  0.00000000E+00  0.00000000E+00  0.00000000E+00
  0.00000000E+00  0.00000000E+00  0.00000000E+00
  0.00000000E+00  0.00000000E+00  0.00000000E+00
  0.00000000E+00  0.00000000E+00  0.00000000E+00
  0.00000000E+00  0.00000000E+00  0.00000000E+00
  0.00000000E+00  0.00000000E+00  0.00000000E+00
  0.00000000E+00  0.00000000E+00  0.00000000E+00
  0.00000000E+00  0.00000000E+00  0.00000000E+00
  0.00000000E+00  0.00000000E+00  0.00000000E+00
  0.00000000E+00  0.00000000E+00  0.00000000E+00
  0.00000000E+00  0.00000000E+00  0.00000000E+00
  0.00000000E+00  0.00000000E+00  0.00000000E+00
  0.00000000E+00  0.00000000E+00  0.00000000E+00
  0.00000000E+00  0.00000000E+00  0.00000000E+00
  0.00000000E+00  0.00000000E+00  0.00000000E+00
  0.00000000E+00  0.00000000E+00  0.00000000E+00
  0.00000000E+00  0.00000000E+00  0.00000000E+00
  0.00000000E+00  0.00000000E+00  0.00000000E+00
  0.00000000E+00  0.00000000E+00  0.00000000E+00
  0.00000000E+00  0.00000000E+00  0.00000000E+00
  0.00000000E+00  0.00000000E+00  0.00000000E+00
  0.00000000E+00  0.00000000E+00  0.00000000E+00
  0.00000000E+00  0.00000000E+00  0.00000000E+00
  0.00000000E+00  0.00000000E+00  0.00000000E+00
  0.00000000E+00  0.00000000E+00  0.00000000E+00
  0.00000000E+00  0.00000000E+00  0.00000000E+00
  0.00000000E+00  0.00000000E+00  0.00000000E+00
  0.00000000E+00  0.00000000E+00  0.00000000E+00
  0.00000000E+00  0.00000000E+00  0.00000000E+00
  0.00000000E+00  0.00000000E+00  0.00000000E+00
  0.00000000E+00  0.00000000E+00  0.00000000E+00
  0.00000000E+00  0.00000000E+00  0.00000000E+00
  0.00000000E+00  0.00000000E+00  0.00000000E+00
  0.00000000E+00  0.00000000E+00  0.00000000E+00
  0.00000000E+00  0.00000000E+00  0.00000000E+00
  0.00000000E+00  0.00000000E+00  0.00000000E+00
  0.00000000E+00  0.00000000E+00  0.00000000E+00
  0.00000000E+00  0.00000000E+00  0.00000000E+00
  0.00000000E+00  0.00000000E+00  0.00000000E+00
  0.00000000E+00  0.00000000E+00  0.00000000E+00
  0.00000000E+00  0.00000000E+00  0.00000000E+00
  0.00000000E+00  0.00000000E+00  0.00000000E+00
  0.00000000E+00  0.00000000E+00  0.00000000E+00
  0.00000000E+00  0.00000000E+00  0.00000000E+00
  0.00000000E+00  0.00000000E+00  0.00000000E+00
  0.00000000E+00  0.00000000E+00  0.00000000E+00
