Ba10 Sr10 Co24 O68
1.0
11.105715 0.000000 0.000000
-0.004793 5.552855 0.000000
0.000000 0.000000 87.290226
Ba Sr Co O
10 10 24 68
direct
0.000000 0.000000 0.554545 Ba2+
0.500000 0.000000 0.554545 Ba2+
0.250000 0.500000 0.600000 Ba2+
0.750000 0.500000 0.600000 Ba2+
0.000000 0.000000 0.463636 Ba2+
0.500000 0.000000 0.463636 Ba2+
0.250000 0.500000 0.509091 Ba2+
0.750000 0.500000 0.509091 Ba2+
0.250000 0.500000 0.418182 Ba2+
0.750000 0.500000 0.418182 Ba2+
0.250000 0.500000 0.554545 Sr2+
0.750000 0.500000 0.554545 Sr2+
0.500000 0.000000 0.600000 Sr2+
0.000000 0.000000 0.600000 Sr2+
0.250000 0.500000 0.463636 Sr2+
0.750000 0.500000 0.463636 Sr2+
0.500000 0.000000 0.509091 Sr2+
0.000000 0.000000 0.509091 Sr2+
0.500000 0.000000 0.418182 Sr2+
0.000000 0.000000 0.418182 Sr2+
0.250000 0.000000 0.622727 Co4+
0.750000 0.000000 0.622727 Co4+
0.000000 0.500000 0.622727 Co4+
0.500000 0.500000 0.622727 Co4+
0.000000 0.500000 0.577273 Co4+
0.500000 0.500000 0.577273 Co4+
0.250000 0.000000 0.577273 Co4+
0.750000 0.000000 0.577273 Co4+
0.250000 0.000000 0.531818 Co4+
0.750000 0.000000 0.531818 Co4+
0.000000 0.500000 0.531818 Co4+
0.500000 0.500000 0.531818 Co4+
0.000000 0.500000 0.486364 Co4+
0.500000 0.500000 0.486364 Co4+
0.250000 0.000000 0.486364 Co4+
0.750000 0.000000 0.486364 Co4+
0.250000 0.000000 0.440909 Co4+
0.750000 0.000000 0.440909 Co4+
0.000000 0.500000 0.440909 Co4+
0.500000 0.500000 0.440909 Co4+
0.000000 0.500000 0.395455 Co4+
0.500000 0.500000 0.395455 Co4+
0.250000 0.000000 0.395455 Co4+
0.750000 0.000000 0.395455 Co4+
0.000000 0.500000 0.600070 O2-
0.500000 0.500000 0.600070 O2-
0.000000 0.500000 0.554475 O2-
0.500000 0.500000 0.554475 O2-
0.137753 0.775506 0.622727 O2-
0.637753 0.775506 0.622727 O2-
0.387583 0.724834 0.622727 O2-
0.887583 0.724834 0.622727 O2-
0.362247 0.224494 0.622727 O2-
0.862247 0.224494 0.622727 O2-
0.112417 0.275166 0.622727 O2-
0.612417 0.275166 0.622727 O2-
0.250000 0.000000 0.554616 O2-
0.750000 0.000000 0.554616 O2-
0.250000 0.000000 0.599930 O2-
0.750000 0.000000 0.599930 O2-
0.387753 0.275506 0.577273 O2-
0.887753 0.275506 0.577273 O2-
0.137583 0.224835 0.577273 O2-
0.637583 0.224835 0.577273 O2-
0.112247 0.724494 0.577273 O2-
0.612247 0.724494 0.577273 O2-
0.362417 0.775166 0.577273 O2-
0.862417 0.775166 0.577273 O2-
0.000000 0.500000 0.509161 O2-
0.500000 0.500000 0.509161 O2-
0.000000 0.500000 0.463566 O2-
0.500000 0.500000 0.463566 O2-
0.137753 0.775506 0.531818 O2-
0.637753 0.775506 0.531818 O2-
0.387583 0.724834 0.531818 O2-
0.887583 0.724834 0.531818 O2-
0.362247 0.224494 0.531818 O2-
0.862247 0.224494 0.531818 O2-
0.112417 0.275166 0.531818 O2-
0.612417 0.275166 0.531818 O2-
0.250000 0.000000 0.463707 O2-
0.750000 0.000000 0.463707 O2-
0.250000 0.000000 0.509020 O2-
0.750000 0.000000 0.509020 O2-
0.387753 0.275506 0.486364 O2-
0.887753 0.275506 0.486364 O2-
0.137583 0.224835 0.486364 O2-
0.637583 0.224835 0.486364 O2-
0.112247 0.724494 0.486364 O2-
0.612247 0.724494 0.486364 O2-
0.362417 0.775166 0.486364 O2-
0.862417 0.775166 0.486364 O2-
0.000000 0.500000 0.418252 O2-
0.500000 0.500000 0.418252 O2-
0.137753 0.775506 0.440909 O2-
0.637753 0.775506 0.440909 O2-
0.387583 0.724834 0.440909 O2-
0.887583 0.724834 0.440909 O2-
0.362247 0.224494 0.440909 O2-
0.862247 0.224494 0.440909 O2-
0.112417 0.275166 0.440909 O2-
0.612417 0.275166 0.440909 O2-
0.250000 0.000000 0.418111 O2-
0.750000 0.000000 0.418111 O2-
0.387753 0.275506 0.395455 O2-
0.887753 0.275506 0.395455 O2-
0.137583 0.224835 0.395455 O2-
0.637583 0.224835 0.395455 O2-
0.112247 0.724494 0.395455 O2-
0.612247 0.724494 0.395455 O2-
0.362417 0.775166 0.395455 O2-
0.862417 0.775166 0.395455 O2-
