H4 Ir32 O68                             
   1.00000000000000     
     6.3790139999999997    0.0000000000000000    0.0000000000000000
     0.0000000000000000   12.8550290000000000    0.0000000000000000
     0.0000000000000000    0.0000000000000000   38.5650860000000009
   H    Ir   O 
     4    32    68
Direct
  0.1516424401703783  0.1250000281723761  0.6810396266869251
  0.1516418575697409  0.6250000021221935  0.6810395706251655
  0.6516423230998467  0.1250000281646578  0.6810396387545528
  0.6516418276426980  0.6250000021282055  0.6810395682049943
  0.2493210431283771  0.1250003424447775  0.3734427330232469
  0.2493204038177879  0.6249996643144764  0.3734428108565647
  0.7493210302083853  0.1250003396077007  0.3734427305363042
  0.7493202459940110  0.6249996945164308  0.3734428007492943
 -0.0000616417666051  0.3749999968495050  0.3754936713809266
 -0.0000622730530542  0.8749999581417955  0.3754936138861203
  0.4999383523285937  0.3749999828589362  0.3754936732663617
  0.4999376805689133  0.8749999722416222  0.3754936133307279
  0.2499022803944322  0.3750003684121409  0.4578084448029790
  0.2499023001365628  0.8750002619823276  0.4578087020153795
  0.7499023362859706  0.3750003692164681  0.4578084455094844
  0.7499023311475362  0.8750002608872648  0.4578087029298210
 -0.0002217623571888  0.1250015939028868  0.4578533724775694
 -0.0002211581851059  0.6250020649901893  0.4578533723946246
  0.4997782343008295  0.1250015932575785  0.4578533699415306
  0.4997788383925954  0.6250020656275627  0.4578533747942702
  0.2499663179745966  0.1250001791201224  0.5411905634936715
  0.2499702556631679  0.6249997998517961  0.5411905873097755
  0.7499660410858032  0.1250001761679270  0.5411905647750577
  0.7499702719714697  0.6249998048794428  0.5411905873260100
 -0.0014542145715528  0.3749999983451286  0.5414888767934684
 -0.0014550011108236  0.8750000087188835  0.5414890232023034
  0.4985457882369556  0.3749999964663064  0.5414888750379415
  0.4985450069486075  0.8750000105659338  0.5414890209262636
  0.2496772957558120  0.3749998354795640  0.6262261053630261
  0.2496837394833436  0.8750001887566394  0.6262271893049680
  0.7496773483034680  0.3749998225907903  0.6262261067555096
  0.7496837898710388  0.8750002014236375  0.6262271933970556
  0.0017467129832103  0.1250000492531316  0.6244907856101528
  0.0017480567390757  0.6249998919110062  0.6244909132146134
  0.5017476115916187  0.1250000494004607  0.6244907813052394
  0.5017480446560918  0.6249998918131355  0.6244909179374084
 -0.0000799256576878  0.1250000314601316  0.3423351602243027
 -0.0000798919278626  0.6250000136744180  0.3423351633738237
  0.4999201800365506  0.1250000315264976  0.3423351606470905
  0.4999199663104719  0.6250000136280210  0.3423351627600146
  0.2499123811448257  0.2771299717518204  0.3749301555439029
  0.2499122274744214  0.7771300277603234  0.3749301304830851
  0.7499123857735032  0.2771299895634814  0.3749301537781051
  0.7499122162203867  0.7771300061320345  0.3749301326539401
 -0.0003647160691896  0.1250000369146154  0.4075423924761220
 -0.0003648405934184  0.6250000009189594  0.4075423200621826
  0.4996352903968465  0.1250000367165531  0.4075423946791219
  0.4996351774992517  0.6250000010798360  0.4075423190774884
  0.2499123778430168  0.4728699491727260  0.3749301406472745
  0.2499122272523072  0.9728700684920931  0.3749301396650651
  0.7499123548527376  0.4728699713144078  0.3749301426475851
  0.7499122453236372  0.9728700509520474  0.3749301378832550
 -0.0000577183605844  0.3749999873653944  0.4256813647123973
 -0.0000576099571773  0.8750000324633812  0.4256813609093352
  0.4999423558782090  0.3749999881198716  0.4256813647004216
  0.4999422922237477  0.8750000316556923  0.4256813607427370
  0.2499466501704662  0.0271458985655943  0.4583013501741062
  0.2499465804868327  0.5271456995241592  0.4583013364784208
  0.7499465786542392  0.0271458606572540  0.4583013554029887
  0.7499466717319018  0.5271457259388681  0.4583013329614067
 -0.0002204467833187  0.3750000095350088  0.4909146936886651
 -0.0002203245135725  0.8750000082625499  0.4909147248658052
  0.4997796080368311  0.3750000119550781  0.4909146967342880
  0.4997796118201351  0.8750000057817234  0.4909147256852909
  0.2499466255206230  0.2228544198326310  0.4583013326413298
  0.2499466311788227  0.7228543168129102  0.4583013482073030
  0.7499465484634650  0.2228543959140832  0.4583013292357818
  0.7499467286643506  0.7228543523533705  0.4583013532806218
 -0.0000575012964861  0.1250000818874426  0.5090063712193326
 -0.0000578292379373  0.6249999703969609  0.5090063775014591
  0.4999424881565886  0.1250000819304997  0.5090063704253872
  0.4999422147880194  0.6249999703390593  0.5090063780583302
  0.2497481879915355  0.2771477311278064  0.5416362457472153
  0.2497483288446052  0.7771476857107857  0.5416362577523116
  0.7497483380914601  0.2771477342927515  0.5416362456194806
  0.7497484079023571  0.7771476877608667  0.5416362577539150
 -0.0004414742135880  0.1250000717581571  0.5741988986772184
 -0.0004322960605191  0.6249999477578493  0.5741992354084151
  0.4995586304563661  0.1250000714638406  0.5741988973657268
  0.4995677159644719  0.6249999480355609  0.5741992356686173
  0.2497483761550749  0.4728522792475870  0.5416362588694195
  0.2497481375205526  0.9728523465345978  0.5416362425863733
  0.7497485280519005  0.4728522764978058  0.5416362586470774
  0.7497482142164223  0.9728523441407352  0.5416362426612338
 -0.0001894209215581  0.3750000411666063  0.5923640687352025
 -0.0001885206949515  0.8749999846052743  0.5923640975398271
  0.4998105602909331  0.3750000412990527  0.5923640584932597
  0.4998114533918675  0.8749999844762874  0.5923640937690633
  0.2503082236424828  0.0271274363508268  0.6249622888127883
  0.2503081423221518  0.5271273933375281  0.6249622498699766
  0.7503081638702480  0.0271274329849619  0.6249622895328543
  0.7503080765925205  0.5271273901912416  0.6249622492789965
 -0.0000513054467073  0.3750000504159557  0.6575999325764660
 -0.0000502710228289  0.8749999742392176  0.6576000530805778
  0.4999486776246080  0.3750000502672264  0.6575999329582484
  0.4999497154778353  0.8749999743357796  0.6576000532462279
  0.2503079835649032  0.2228727255645044  0.6249622154147541
  0.2503083511783418  0.7228724753065412  0.6249623050757847
  0.7503079259061802  0.2228727275845465  0.6249622158275142
  0.7503082833996977  0.7228724796813550  0.6249623048112278
  0.0078694455254424  0.1250000543701454  0.6736302148307463
  0.0078632867444610  0.6250000301170824  0.6736285929977067
  0.5078708123624995  0.1250000542982940  0.6736302418869951
  0.5078637543597035  0.6250000301467035  0.6736286023576766
 
  0.00000000E+00  0.00000000E+00  0.00000000E+00
  0.00000000E+00  0.00000000E+00  0.00000000E+00
  0.00000000E+00  0.00000000E+00  0.00000000E+00
  0.00000000E+00  0.00000000E+00  0.00000000E+00
  0.00000000E+00  0.00000000E+00  0.00000000E+00
  0.00000000E+00  0.00000000E+00  0.00000000E+00
  0.00000000E+00  0.00000000E+00  0.00000000E+00
  0.00000000E+00  0.00000000E+00  0.00000000E+00
  0.00000000E+00  0.00000000E+00  0.00000000E+00
  0.00000000E+00  0.00000000E+00  0.00000000E+00
  0.00000000E+00  0.00000000E+00  0.00000000E+00
  0.00000000E+00  0.00000000E+00  0.00000000E+00
  0.00000000E+00  0.00000000E+00  0.00000000E+00
  0.00000000E+00  0.00000000E+00  0.00000000E+00
  0.00000000E+00  0.00000000E+00  0.00000000E+00
  0.00000000E+00  0.00000000E+00  0.00000000E+00
  0.00000000E+00  0.00000000E+00  0.00000000E+00
  0.00000000E+00  0.00000000E+00  0.00000000E+00
  0.00000000E+00  0.00000000E+00  0.00000000E+00
  0.00000000E+00  0.00000000E+00  0.00000000E+00
  0.00000000E+00  0.00000000E+00  0.00000000E+00
  0.00000000E+00  0.00000000E+00  0.00000000E+00
  0.00000000E+00  0.00000000E+00  0.00000000E+00
  0.00000000E+00  0.00000000E+00  0.00000000E+00
  0.00000000E+00  0.00000000E+00  0.00000000E+00
  0.00000000E+00  0.00000000E+00  0.00000000E+00
  0.00000000E+00  0.00000000E+00  0.00000000E+00
  0.00000000E+00  0.00000000E+00  0.00000000E+00
  0.00000000E+00  0.00000000E+00  0.00000000E+00
  0.00000000E+00  0.00000000E+00  0.00000000E+00
  0.00000000E+00  0.00000000E+00  0.00000000E+00
  0.00000000E+00  0.00000000E+00  0.00000000E+00
  0.00000000E+00  0.00000000E+00  0.00000000E+00
  0.00000000E+00  0.00000000E+00  0.00000000E+00
  0.00000000E+00  0.00000000E+00  0.00000000E+00
  0.00000000E+00  0.00000000E+00  0.00000000E+00
  0.00000000E+00  0.00000000E+00  0.00000000E+00
  0.00000000E+00  0.00000000E+00  0.00000000E+00
  0.00000000E+00  0.00000000E+00  0.00000000E+00
  0.00000000E+00  0.00000000E+00  0.00000000E+00
  0.00000000E+00  0.00000000E+00  0.00000000E+00
  0.00000000E+00  0.00000000E+00  0.00000000E+00
  0.00000000E+00  0.00000000E+00  0.00000000E+00
  0.00000000E+00  0.00000000E+00  0.00000000E+00
  0.00000000E+00  0.00000000E+00  0.00000000E+00
  0.00000000E+00  0.00000000E+00  0.00000000E+00
  0.00000000E+00  0.00000000E+00  0.00000000E+00
  0.00000000E+00  0.00000000E+00  0.00000000E+00
  0.00000000E+00  0.00000000E+00  0.00000000E+00
  0.00000000E+00  0.00000000E+00  0.00000000E+00
  0.00000000E+00  0.00000000E+00  0.00000000E+00
  0.00000000E+00  0.00000000E+00  0.00000000E+00
  0.00000000E+00  0.00000000E+00  0.00000000E+00
  0.00000000E+00  0.00000000E+00  0.00000000E+00
  0.00000000E+00  0.00000000E+00  0.00000000E+00
  0.00000000E+00  0.00000000E+00  0.00000000E+00
  0.00000000E+00  0.00000000E+00  0.00000000E+00
  0.00000000E+00  0.00000000E+00  0.00000000E+00
  0.00000000E+00  0.00000000E+00  0.00000000E+00
  0.00000000E+00  0.00000000E+00  0.00000000E+00
  0.00000000E+00  0.00000000E+00  0.00000000E+00
  0.00000000E+00  0.00000000E+00  0.00000000E+00
  0.00000000E+00  0.00000000E+00  0.00000000E+00
  0.00000000E+00  0.00000000E+00  0.00000000E+00
  0.00000000E+00  0.00000000E+00  0.00000000E+00
  0.00000000E+00  0.00000000E+00  0.00000000E+00
  0.00000000E+00  0.00000000E+00  0.00000000E+00
  0.00000000E+00  0.00000000E+00  0.00000000E+00
  0.00000000E+00  0.00000000E+00  0.00000000E+00
  0.00000000E+00  0.00000000E+00  0.00000000E+00
  0.00000000E+00  0.00000000E+00  0.00000000E+00
  0.00000000E+00  0.00000000E+00  0.00000000E+00
  0.00000000E+00  0.00000000E+00  0.00000000E+00
  0.00000000E+00  0.00000000E+00  0.00000000E+00
  0.00000000E+00  0.00000000E+00  0.00000000E+00
  0.00000000E+00  0.00000000E+00  0.00000000E+00
  0.00000000E+00  0.00000000E+00  0.00000000E+00
  0.00000000E+00  0.00000000E+00  0.00000000E+00
  0.00000000E+00  0.00000000E+00  0.00000000E+00
  0.00000000E+00  0.00000000E+00  0.00000000E+00
  0.00000000E+00  0.00000000E+00  0.00000000E+00
  0.00000000E+00  0.00000000E+00  0.00000000E+00
  0.00000000E+00  0.00000000E+00  0.00000000E+00
  0.00000000E+00  0.00000000E+00  0.00000000E+00
  0.00000000E+00  0.00000000E+00  0.00000000E+00
  0.00000000E+00  0.00000000E+00  0.00000000E+00
  0.00000000E+00  0.00000000E+00  0.00000000E+00
  0.00000000E+00  0.00000000E+00  0.00000000E+00
  0.00000000E+00  0.00000000E+00  0.00000000E+00
  0.00000000E+00  0.00000000E+00  0.00000000E+00
  0.00000000E+00  0.00000000E+00  0.00000000E+00
  0.00000000E+00  0.00000000E+00  0.00000000E+00
  0.00000000E+00  0.00000000E+00  0.00000000E+00
  0.00000000E+00  0.00000000E+00  0.00000000E+00
  0.00000000E+00  0.00000000E+00  0.00000000E+00
  0.00000000E+00  0.00000000E+00  0.00000000E+00
  0.00000000E+00  0.00000000E+00  0.00000000E+00
  0.00000000E+00  0.00000000E+00  0.00000000E+00
  0.00000000E+00  0.00000000E+00  0.00000000E+00
  0.00000000E+00  0.00000000E+00  0.00000000E+00
  0.00000000E+00  0.00000000E+00  0.00000000E+00
  0.00000000E+00  0.00000000E+00  0.00000000E+00
  0.00000000E+00  0.00000000E+00  0.00000000E+00
  0.00000000E+00  0.00000000E+00  0.00000000E+00
