Pd64 O2                                 
    1.000000000000000     
    11.0798020200000007    0.0000000000000000    0.0000000000000000
     0.0000000000000000   11.0798020200000007    0.0000000000000000
     0.0000000000000000    0.0000000000000000   39.1730157000000005
   Pd   O 
    64     2
Selective dynamics
Direct
  0.9999515551257565  0.2498390077700691  0.5251112902963714   T   T   T
  0.9999553585626638  0.5001827247726862  0.5251089850276095   T   T   T
  0.0013425489997415  0.7512512245430002  0.5258032106056320   T   T   T
  0.0013833482457225  0.9987756827970160  0.5258114860961897   T   T   T
  0.2500097171527842  0.2497480261486539  0.5252119334663893   T   T   T
  0.2500105806154051  0.5002694743752399  0.5252092849035819   T   T   T
  0.2509256094896900  0.7521690949345666  0.5260428478226918   T   T   T
  0.2509296381153138  0.9978474505802697  0.5260457499107486   T   T   T
  0.4999953426312840  0.2497462935438401  0.5252149320176762   T   T   T
  0.5000079613127142  0.5002652834566447  0.5252086058629066   T   T   T
  0.4990361112061252  0.7521524559899780  0.5260410381426405   T   T   T
  0.4990155368427736  0.9978751742273729  0.5260444162984554   T   T   T
  0.7500808939347522  0.2498323884701843  0.5251079042925371   T   T   T
  0.7500848436098918  0.5001934620707950  0.5251028820858227   T   T   T
  0.7487997946977638  0.7512944048092852  0.5258183620984490   T   T   T
  0.7487934061430678  0.9987402875077336  0.5258184212897218   T   T   T
  0.1239729662275895  0.1270760680447975  0.5748145722760113   T   T   T
  0.1242455606047036  0.3750345120907545  0.5747300610644077   T   T   T
  0.1239602522592296  0.6229147335811485  0.5748199762691121   T   T   T
  0.1239405990392519  0.8749667774963608  0.5792433260398551   T   T   T
  0.3749442986768461  0.1270915525659502  0.5747671155540873   T   T   T
  0.3750303845902291  0.3750389278780061  0.5747188138892857   T   T   T
  0.3750486955549917  0.6228850665021718  0.5747591765164736   T   T   T
  0.3733899225188895  0.8748989364698102  0.5886907864089916   T   T   T
  0.6260635243621722  0.1271251307377611  0.5748063586964053   T   T   T
  0.6257994223113944  0.3750536478377651  0.5747280541709673   T   T   T
  0.6260990151736583  0.6229432536909036  0.5748038096137161   T   T   T
  0.6262659532431712  0.8751715810880458  0.5789745710518578   T   T   T
  0.8750592965928704  0.1267975968436473  0.5747760217161071   T   T   T
  0.8750185524206510  0.3750783124677302  0.5747258144591866   T   T   T
  0.8750551514842680  0.6233165005965369  0.5747706208315768   T   T   T
  0.8756469460599654  0.8751664338585867  0.5752852971321483   T   T   T
  0.2500000000000000  0.0000000000000000  0.4249999999999972   F   F   F
  0.2500000000000000  0.2500000000000000  0.4249999999999972   F   F   F
  0.2500000000000000  0.5000000000000000  0.4249999999999972   F   F   F
  0.2500000000000000  0.7500000000000000  0.4249999999999972   F   F   F
  0.5000000000000000  0.0000000000000000  0.4249999999999972   F   F   F
  0.5000000000000000  0.2500000000000000  0.4249999999999972   F   F   F
  0.5000000000000000  0.5000000000000000  0.4249999999999972   F   F   F
  0.5000000000000000  0.7500000000000000  0.4249999999999972   F   F   F
  0.7500000000000000  0.0000000000000000  0.4249999999999972   F   F   F
  0.7500000000000000  0.2500000000000000  0.4249999999999972   F   F   F
  0.7500000000000000  0.5000000000000000  0.4249999999999972   F   F   F
  0.7500000000000000  0.7500000000000000  0.4249999999999972   F   F   F
  0.0000000000000000  0.0000000000000000  0.4249999999999972   F   F   F
  0.0000000000000000  0.2500000000000000  0.4249999999999972   F   F   F
  0.0000000000000000  0.5000000000000000  0.4249999999999972   F   F   F
  0.0000000000000000  0.7500000000000000  0.4249999999999972   F   F   F
  0.1250000000000000  0.1250000000000000  0.4750000000000014   F   F   F
  0.1250000000000000  0.3750000000000000  0.4750000000000014   F   F   F
  0.1250000000000000  0.6250000000000000  0.4750000000000014   F   F   F
  0.1250000000000000  0.8750000000000000  0.4750000000000014   F   F   F
  0.3750000000000000  0.1250000000000000  0.4750000000000014   F   F   F
  0.3750000000000000  0.3750000000000000  0.4750000000000014   F   F   F
  0.3750000000000000  0.6250000000000000  0.4750000000000014   F   F   F
  0.3750000000000000  0.8750000000000000  0.4750000000000014   F   F   F
  0.6250000000000000  0.1250000000000000  0.4750000000000014   F   F   F
  0.6250000000000000  0.3750000000000000  0.4750000000000014   F   F   F
  0.6250000000000000  0.6250000000000000  0.4750000000000014   F   F   F
  0.6250000000000000  0.8750000000000000  0.4750000000000014   F   F   F
  0.8750000000000000  0.1250000000000000  0.4750000000000014   F   F   F
  0.8750000000000000  0.3750000000000000  0.4750000000000014   F   F   F
  0.8750000000000000  0.6250000000000000  0.4750000000000014   F   F   F
  0.8750000000000000  0.8750000000000000  0.4750000000000014   F   F   F
  0.2313458308784315  0.8730256435346557  0.6177575090750811   T   T   T
  0.5178572964810629  0.8750002058154894  0.6173294027095487   T   T   T
 
  0.00000000E+00  0.00000000E+00  0.00000000E+00
  0.00000000E+00  0.00000000E+00  0.00000000E+00
  0.00000000E+00  0.00000000E+00  0.00000000E+00
  0.00000000E+00  0.00000000E+00  0.00000000E+00
  0.00000000E+00  0.00000000E+00  0.00000000E+00
  0.00000000E+00  0.00000000E+00  0.00000000E+00
  0.00000000E+00  0.00000000E+00  0.00000000E+00
  0.00000000E+00  0.00000000E+00  0.00000000E+00
  0.00000000E+00  0.00000000E+00  0.00000000E+00
  0.00000000E+00  0.00000000E+00  0.00000000E+00
  0.00000000E+00  0.00000000E+00  0.00000000E+00
  0.00000000E+00  0.00000000E+00  0.00000000E+00
  0.00000000E+00  0.00000000E+00  0.00000000E+00
  0.00000000E+00  0.00000000E+00  0.00000000E+00
  0.00000000E+00  0.00000000E+00  0.00000000E+00
  0.00000000E+00  0.00000000E+00  0.00000000E+00
  0.00000000E+00  0.00000000E+00  0.00000000E+00
  0.00000000E+00  0.00000000E+00  0.00000000E+00
  0.00000000E+00  0.00000000E+00  0.00000000E+00
  0.00000000E+00  0.00000000E+00  0.00000000E+00
  0.00000000E+00  0.00000000E+00  0.00000000E+00
  0.00000000E+00  0.00000000E+00  0.00000000E+00
  0.00000000E+00  0.00000000E+00  0.00000000E+00
  0.00000000E+00  0.00000000E+00  0.00000000E+00
  0.00000000E+00  0.00000000E+00  0.00000000E+00
  0.00000000E+00  0.00000000E+00  0.00000000E+00
  0.00000000E+00  0.00000000E+00  0.00000000E+00
  0.00000000E+00  0.00000000E+00  0.00000000E+00
  0.00000000E+00  0.00000000E+00  0.00000000E+00
  0.00000000E+00  0.00000000E+00  0.00000000E+00
  0.00000000E+00  0.00000000E+00  0.00000000E+00
  0.00000000E+00  0.00000000E+00  0.00000000E+00
  0.00000000E+00  0.00000000E+00  0.00000000E+00
  0.00000000E+00  0.00000000E+00  0.00000000E+00
  0.00000000E+00  0.00000000E+00  0.00000000E+00
  0.00000000E+00  0.00000000E+00  0.00000000E+00
  0.00000000E+00  0.00000000E+00  0.00000000E+00
  0.00000000E+00  0.00000000E+00  0.00000000E+00
  0.00000000E+00  0.00000000E+00  0.00000000E+00
  0.00000000E+00  0.00000000E+00  0.00000000E+00
  0.00000000E+00  0.00000000E+00  0.00000000E+00
  0.00000000E+00  0.00000000E+00  0.00000000E+00
  0.00000000E+00  0.00000000E+00  0.00000000E+00
  0.00000000E+00  0.00000000E+00  0.00000000E+00
  0.00000000E+00  0.00000000E+00  0.00000000E+00
  0.00000000E+00  0.00000000E+00  0.00000000E+00
  0.00000000E+00  0.00000000E+00  0.00000000E+00
  0.00000000E+00  0.00000000E+00  0.00000000E+00
  0.00000000E+00  0.00000000E+00  0.00000000E+00
  0.00000000E+00  0.00000000E+00  0.00000000E+00
  0.00000000E+00  0.00000000E+00  0.00000000E+00
  0.00000000E+00  0.00000000E+00  0.00000000E+00
  0.00000000E+00  0.00000000E+00  0.00000000E+00
  0.00000000E+00  0.00000000E+00  0.00000000E+00
  0.00000000E+00  0.00000000E+00  0.00000000E+00
  0.00000000E+00  0.00000000E+00  0.00000000E+00
  0.00000000E+00  0.00000000E+00  0.00000000E+00
  0.00000000E+00  0.00000000E+00  0.00000000E+00
  0.00000000E+00  0.00000000E+00  0.00000000E+00
  0.00000000E+00  0.00000000E+00  0.00000000E+00
  0.00000000E+00  0.00000000E+00  0.00000000E+00
  0.00000000E+00  0.00000000E+00  0.00000000E+00
  0.00000000E+00  0.00000000E+00  0.00000000E+00
  0.00000000E+00  0.00000000E+00  0.00000000E+00
  0.00000000E+00  0.00000000E+00  0.00000000E+00
  0.00000000E+00  0.00000000E+00  0.00000000E+00
