Ir2 O4                                  
   1.00000000000000     
     0.0000000000000000    4.5449390000000003    0.0000000000000000
    -4.5449390000000003    0.0000000000000000    3.1895069999999999
     0.0000000000000000    0.0000000000000000    3.1895069999999999
   Ir   O 
     2     4
Direct
  0.5000000000000000  0.5000000000000000  0.0000000000000000
  0.0000000000000000  0.0000000000000000  0.0000000000000000
  0.6916459999999987  0.3083540000000013  0.6916459999999987
  0.1916459999999987  0.1916459999999987  0.3083540000000013
  0.3083540000000013  0.6916459999999987  0.3083540000000013
  0.8083540000000013  0.8083540000000013  0.6916459999999987
 
  0.00000000E+00  0.00000000E+00  0.00000000E+00
  0.00000000E+00  0.00000000E+00  0.00000000E+00
  0.00000000E+00  0.00000000E+00  0.00000000E+00
  0.00000000E+00  0.00000000E+00  0.00000000E+00
  0.00000000E+00  0.00000000E+00  0.00000000E+00
  0.00000000E+00  0.00000000E+00  0.00000000E+00
