ALGO = Fast
EDIFF = 0.0001
EDIFFG = -0.05
ENCUT = 500
GGA = PE
IBRION = 2
ISIF = 0
ISMEAR = 0
ISPIN = 2
ISTART = 1
ISYM = 0
LASPH = True
LORBIT = 11
LREAL = True
LVTOT = True
LWAVE = True
MAGMOM = 1*0.1 32*1.2 69*0.6
NCORE = 4
NELM = 80
NELMIN = 8
NSW = 300
PREC = Accurate
SIGMA = 0.2
SYMPREC = 1e-10
