Ir32 H4 C1 O65
1.0
6.379014 0.000000 0.000000
0.000000 12.855029 0.000000
0.000000 0.000000 38.565086
Ir O H C O
32 64 4 1 1
direct
0.250000 0.125001 0.373694 Ir
0.250000 0.625002 0.373695 Ir
0.750000 0.125001 0.373694 Ir
0.750000 0.625002 0.373695 Ir
0.000000 0.375000 0.376634 Ir
-0.000000 0.875000 0.376633 Ir
0.500000 0.375000 0.376634 Ir
0.500000 0.875000 0.376633 Ir
0.250000 0.374999 0.458245 Ir
0.250000 0.875000 0.458244 Ir
0.750000 0.374999 0.458245 Ir
0.750000 0.875000 0.458244 Ir
0.000000 0.124999 0.457997 Ir
0.000000 0.625001 0.457997 Ir
0.500000 0.124999 0.457997 Ir
0.500000 0.625001 0.457997 Ir
0.250000 0.125002 0.541755 Ir
0.250000 0.624998 0.541755 Ir
0.750000 0.125002 0.541755 Ir
0.750000 0.624998 0.541755 Ir
0.000000 0.374999 0.542002 Ir
0.000000 0.875001 0.542002 Ir
0.500000 0.374999 0.542002 Ir
0.500000 0.875001 0.542002 Ir
0.250000 0.374998 0.626306 Ir
0.250000 0.875001 0.626307 Ir
0.750000 0.374998 0.626306 Ir
0.750000 0.875001 0.626307 Ir
-0.000000 0.125000 0.623367 Ir
-0.000000 0.625000 0.623368 Ir
0.500000 0.125000 0.623367 Ir
0.500000 0.625000 0.623368 Ir
0.000000 0.125000 0.342365 O
-0.000000 0.625000 0.342365 O
0.500000 0.125000 0.342365 O
0.500000 0.625000 0.342365 O
0.250000 0.277149 0.374972 O
0.250000 0.777149 0.374972 O
0.750000 0.277149 0.374972 O
0.750000 0.777149 0.374972 O
-0.000000 0.125000 0.407598 O
0.000000 0.625000 0.407598 O
0.500000 0.125000 0.407598 O
0.500000 0.625000 0.407598 O
0.250000 0.472851 0.374972 O
0.250000 0.972851 0.374972 O
0.750000 0.472851 0.374972 O
0.750000 0.972851 0.374972 O
0.000000 0.375000 0.425760 O
0.000000 0.875000 0.425760 O
0.500000 0.375000 0.425760 O
0.500000 0.875000 0.425760 O
0.250000 0.027149 0.458329 O
0.250000 0.527149 0.458329 O
0.750000 0.027149 0.458329 O
0.750000 0.527149 0.458329 O
-0.000000 0.375000 0.490967 O
-0.000000 0.875000 0.490967 O
0.500000 0.375000 0.490967 O
0.500000 0.875000 0.490967 O
0.250000 0.222851 0.458329 O
0.250000 0.722851 0.458329 O
0.750000 0.222851 0.458329 O
0.750000 0.722851 0.458329 O
-0.000000 0.125000 0.509032 O
-0.000000 0.625000 0.509032 O
0.500000 0.125000 0.509032 O
0.500000 0.625000 0.509032 O
0.250000 0.277149 0.541671 O
0.250000 0.777149 0.541671 O
0.750000 0.277149 0.541671 O
0.750000 0.777149 0.541671 O
0.000000 0.125000 0.574240 O
0.000000 0.625000 0.574240 O
0.500000 0.125000 0.574240 O
0.500000 0.625000 0.574240 O
0.250000 0.472851 0.541671 O
0.250000 0.972851 0.541671 O
0.750000 0.472851 0.541671 O
0.750000 0.972851 0.541671 O
-0.000000 0.375000 0.592402 O
-0.000000 0.875000 0.592402 O
0.500000 0.375000 0.592402 O
0.500000 0.875000 0.592402 O
0.250000 0.027149 0.625027 O
0.250000 0.527149 0.625027 O
0.750000 0.027149 0.625027 O
0.750000 0.527149 0.625027 O
-0.000000 0.375000 0.657635 O
0.000000 0.875000 0.657635 O
0.500000 0.375000 0.657635 O
0.500000 0.875000 0.657635 O
0.250000 0.222851 0.625027 O
0.250000 0.722851 0.625027 O
0.750000 0.222851 0.625027 O
0.750000 0.722851 0.625027 O
-0.226600 0.204159 0.696211 H
0.149505 0.112840 0.672442 H
-0.023894 0.157359 0.724036 H
0.022636 0.267164 0.697307 H
-0.057541 0.191734 0.698591 C
-0.000000 0.125000 0.670871 O
