H1 Ir32 O72                             
   1.00000000000000     
     9.0898780000000006    0.0000000000000000    0.0000000000000000
     0.0000000000000000   11.1045669999999994   -0.0793000000000000
     0.0000000000000000    0.0000000000000000   31.3300599999999996
   H    Ir   O 
     1    32    72
Direct
  0.4472203123250350  0.8423249956926182  0.6831482202730209
  0.2634116267309710  0.3288068045853746  0.3750979096512032
  0.2632609551987066  0.8289800902102452  0.3751846286348438
  0.7632459226522030  0.3291396736685313  0.3751727062693493
  0.7633008276259287  0.8289854195024288  0.3751883767632255
  0.9892180584360682  0.0801624869145531  0.3763119204361290
  0.9880348114030013  0.5789015847001415  0.3759017899008608
  0.4893300731022806  0.0799398250949209  0.3763095778975529
  0.4880045629150265  0.5789669329526471  0.3758302468881368
  0.2472619533948017  0.0012555174409799  0.4578127506390264
  0.2475081509744981  0.5017454558868002  0.4574104338158259
  0.7472877441820434  0.0012706514016658  0.4578165667423338
  0.7471493767338514  0.5013156267573745  0.4578088840759566
  0.0011886714405178  0.2528182419462605  0.4579647552760456
  0.0015669545560630  0.7527951467704717  0.4578267488520503
  0.5011635027202905  0.2528064744960457  0.4579600849797545
  0.5016057568121234  0.7528138877871657  0.4578134341273556
  0.2509478724679592  0.1667766342427332  0.5411961488431350
  0.2511551920404432  0.6667531458960020  0.5411750319688040
  0.7509489572815709  0.1668160876139740  0.5411808165345617
  0.7509489155776236  0.6667396524249665  0.5411721267816160
  0.0011134756444285  0.4165507277903242  0.5423411162214845
  0.0009678307772748  0.9163734176549465  0.5423896424555561
  0.5007412077486609  0.4166884214963483  0.5423166880297471
  0.5010733671884202  0.9164709262272090  0.5423886026928402
  0.2476863489080867  0.3338347694884424  0.6277826661107759
  0.2477103277128255  0.8346582216948830  0.6270722119876060
  0.7477002620537180  0.3338727124746436  0.6278232235918395
  0.7490412777925455  0.8345463668939496  0.6274181983518285
  0.0058088350440726  0.0849323470951875  0.6271176770066318
  0.0057101284011838  0.5851226267271459  0.6270981581381521
  0.5055431484859881  0.0850449302779564  0.6270127492901919
  0.5054441883745606  0.5848568858725054  0.6270326786944972
  0.3500257499653296  0.1889013292943416  0.3510954884689786
  0.3466399201262856  0.6881506743616190  0.3511061497249658
  0.8500242187801471  0.1899884851975153  0.3511836529424739
  0.8466656636901891  0.6881484345480554  0.3511116804100659
  0.0956895571443993  0.2318681054551362  0.3993588921998719
  0.0956105192629933  0.7318327536367374  0.3993467804710450
  0.5956825978445633  0.2318681117414209  0.3993596736683848
  0.5956115586755747  0.7318339121288132  0.3993448731422786
  0.1529230388885909  0.4817501833965481  0.3993296681131744
  0.1530541542494784  0.9817557872529726  0.3993596013703031
  0.6529006707469286  0.4817510000890334  0.3993442470868936
  0.6530799299199757  0.9817489861443155  0.3993615564867626
  0.4034088610770538  0.4381882373512199  0.3510486963113333
  0.4038343192044224  0.9399660704129449  0.3521333409301843
  0.9033957572338931  0.4382020967161813  0.3510507180777553
  0.9037943010103368  0.9400203706071872  0.3521332992288127
  0.3426206521780042  0.3531724296412426  0.4340001285370502
  0.3426423703830758  0.8531725716390698  0.4340051161580405
  0.8426290399394114  0.3531781319274116  0.4340043681501468
  0.8426400797630841  0.8531738169141305  0.4340052207688724
  0.0957792254784401  0.4005070352072531  0.4845324826386110
  0.0957565414495570  0.9004943273292894  0.4845391665224984
  0.5957475281015217  0.4004984202142903  0.4845418819514850
  0.5957511767521451  0.9004953225490289  0.4845401573038604
  0.1531056659957522  0.1489965648627538  0.4840339603908667
  0.1530205480861940  0.6489874210339619  0.4840158110885642
  0.6530928974494522  0.1489949841141103  0.4840281981324640
  0.6530565901622072  0.6489728610706508  0.4840271957473534
  0.4044266128096526  0.1017379869861268  0.4340390131177564
  0.4045600485772427  0.6016771282128562  0.4340042694325168
  0.9044257074600988  0.1017416915719107  0.4340395096250725
  0.9044734477475552  0.6016852625928854  0.4340155277348612
  0.3467726340994738  0.0179946179750738  0.5160019684965612
  0.3458794111655069  0.5183177918735803  0.5155555377074331
  0.8467947523973041  0.0179793900216455  0.5159997997709556
  0.8467769315069773  0.5179756755236685  0.5159983170235443
  0.0960098571949489  0.0658498961171806  0.5667058911564201
  0.0960027012724962  0.5658653294528180  0.5667004241368322
  0.5960054251801946  0.0658757288580313  0.5667030970904983
  0.5959900420363646  0.5658614690618596  0.5666986966470918
  0.1571323719532526  0.3136128296697751  0.5660589518577102
  0.1572599962297891  0.8136294548159438  0.5660622025271818
  0.6570000931661659  0.3136181457346354  0.5660580322753604
  0.6572633515060532  0.8136195815033899  0.5660532717176461
  0.4045270567687285  0.2679308408683928  0.5159928992645638
  0.4045693631981522  0.7679073768216300  0.5159887822607846
  0.9045325874748492  0.2679296902571947  0.5159931369763343
  0.9045517710775816  0.7679067278134437  0.5159891151363961
  0.3448604604229397  0.1869043111986471  0.6002444770962333
  0.3449001999700539  0.6869484072792686  0.6002402479728783
  0.8449361015510836  0.1868084529251041  0.6001884192210031
  0.8449486979050064  0.6868059796698590  0.6001889120820628
  0.0959417486209796  0.2322253791233029  0.6492615172502963
  0.0973900654099806  0.7323663428170406  0.6487687262121759
  0.5959415081423566  0.2322307121891099  0.6492600870560796
  0.5968630995883493  0.7326486017936574  0.6488330855963161
  0.1501651300889035  0.4832799575456458  0.6477588237757939
  0.1502191558207590  0.9832369312912975  0.6477388432064238
  0.6501668344304731  0.4832785206723272  0.6477572616103477
  0.6501655316178441  0.9832831264005373  0.6477656756364668
  0.4024074018429485  0.4367126924573820  0.6002231823573801
  0.4028699187212830  0.9367205629284050  0.6004493215720965
  0.9024111389842292  0.4367220174761028  0.6002202245483002
  0.9023623735924343  0.9367454145762417  0.6001689953066537
  0.3432714633885160  0.3490014326312316  0.6784631622198253
  0.8432793254031100  0.3490061046891733  0.6784646097718896
  0.8432766022611070  0.8490005652538589  0.6784597283087966
  0.9068442659457221  0.0934956623742551  0.6761289362153841
  0.9068497223604784  0.5934832956205374  0.6761249001232644
  0.4068520402499221  0.0934685739435627  0.6761333457568131
  0.4068628352938292  0.5934952599616613  0.6761249068314577
  0.3387054853035443  0.8514569649330546  0.6839603883714992
 
  0.00000000E+00  0.00000000E+00  0.00000000E+00
  0.00000000E+00  0.00000000E+00  0.00000000E+00
  0.00000000E+00  0.00000000E+00  0.00000000E+00
  0.00000000E+00  0.00000000E+00  0.00000000E+00
  0.00000000E+00  0.00000000E+00  0.00000000E+00
  0.00000000E+00  0.00000000E+00  0.00000000E+00
  0.00000000E+00  0.00000000E+00  0.00000000E+00
  0.00000000E+00  0.00000000E+00  0.00000000E+00
  0.00000000E+00  0.00000000E+00  0.00000000E+00
  0.00000000E+00  0.00000000E+00  0.00000000E+00
  0.00000000E+00  0.00000000E+00  0.00000000E+00
  0.00000000E+00  0.00000000E+00  0.00000000E+00
  0.00000000E+00  0.00000000E+00  0.00000000E+00
  0.00000000E+00  0.00000000E+00  0.00000000E+00
  0.00000000E+00  0.00000000E+00  0.00000000E+00
  0.00000000E+00  0.00000000E+00  0.00000000E+00
  0.00000000E+00  0.00000000E+00  0.00000000E+00
  0.00000000E+00  0.00000000E+00  0.00000000E+00
  0.00000000E+00  0.00000000E+00  0.00000000E+00
  0.00000000E+00  0.00000000E+00  0.00000000E+00
  0.00000000E+00  0.00000000E+00  0.00000000E+00
  0.00000000E+00  0.00000000E+00  0.00000000E+00
  0.00000000E+00  0.00000000E+00  0.00000000E+00
  0.00000000E+00  0.00000000E+00  0.00000000E+00
  0.00000000E+00  0.00000000E+00  0.00000000E+00
  0.00000000E+00  0.00000000E+00  0.00000000E+00
  0.00000000E+00  0.00000000E+00  0.00000000E+00
  0.00000000E+00  0.00000000E+00  0.00000000E+00
  0.00000000E+00  0.00000000E+00  0.00000000E+00
  0.00000000E+00  0.00000000E+00  0.00000000E+00
  0.00000000E+00  0.00000000E+00  0.00000000E+00
  0.00000000E+00  0.00000000E+00  0.00000000E+00
  0.00000000E+00  0.00000000E+00  0.00000000E+00
  0.00000000E+00  0.00000000E+00  0.00000000E+00
  0.00000000E+00  0.00000000E+00  0.00000000E+00
  0.00000000E+00  0.00000000E+00  0.00000000E+00
  0.00000000E+00  0.00000000E+00  0.00000000E+00
  0.00000000E+00  0.00000000E+00  0.00000000E+00
  0.00000000E+00  0.00000000E+00  0.00000000E+00
  0.00000000E+00  0.00000000E+00  0.00000000E+00
  0.00000000E+00  0.00000000E+00  0.00000000E+00
  0.00000000E+00  0.00000000E+00  0.00000000E+00
  0.00000000E+00  0.00000000E+00  0.00000000E+00
  0.00000000E+00  0.00000000E+00  0.00000000E+00
  0.00000000E+00  0.00000000E+00  0.00000000E+00
  0.00000000E+00  0.00000000E+00  0.00000000E+00
  0.00000000E+00  0.00000000E+00  0.00000000E+00
  0.00000000E+00  0.00000000E+00  0.00000000E+00
  0.00000000E+00  0.00000000E+00  0.00000000E+00
  0.00000000E+00  0.00000000E+00  0.00000000E+00
  0.00000000E+00  0.00000000E+00  0.00000000E+00
  0.00000000E+00  0.00000000E+00  0.00000000E+00
  0.00000000E+00  0.00000000E+00  0.00000000E+00
  0.00000000E+00  0.00000000E+00  0.00000000E+00
  0.00000000E+00  0.00000000E+00  0.00000000E+00
  0.00000000E+00  0.00000000E+00  0.00000000E+00
  0.00000000E+00  0.00000000E+00  0.00000000E+00
  0.00000000E+00  0.00000000E+00  0.00000000E+00
  0.00000000E+00  0.00000000E+00  0.00000000E+00
  0.00000000E+00  0.00000000E+00  0.00000000E+00
  0.00000000E+00  0.00000000E+00  0.00000000E+00
  0.00000000E+00  0.00000000E+00  0.00000000E+00
  0.00000000E+00  0.00000000E+00  0.00000000E+00
  0.00000000E+00  0.00000000E+00  0.00000000E+00
  0.00000000E+00  0.00000000E+00  0.00000000E+00
  0.00000000E+00  0.00000000E+00  0.00000000E+00
  0.00000000E+00  0.00000000E+00  0.00000000E+00
  0.00000000E+00  0.00000000E+00  0.00000000E+00
  0.00000000E+00  0.00000000E+00  0.00000000E+00
  0.00000000E+00  0.00000000E+00  0.00000000E+00
  0.00000000E+00  0.00000000E+00  0.00000000E+00
  0.00000000E+00  0.00000000E+00  0.00000000E+00
  0.00000000E+00  0.00000000E+00  0.00000000E+00
  0.00000000E+00  0.00000000E+00  0.00000000E+00
  0.00000000E+00  0.00000000E+00  0.00000000E+00
  0.00000000E+00  0.00000000E+00  0.00000000E+00
  0.00000000E+00  0.00000000E+00  0.00000000E+00
  0.00000000E+00  0.00000000E+00  0.00000000E+00
  0.00000000E+00  0.00000000E+00  0.00000000E+00
  0.00000000E+00  0.00000000E+00  0.00000000E+00
  0.00000000E+00  0.00000000E+00  0.00000000E+00
  0.00000000E+00  0.00000000E+00  0.00000000E+00
  0.00000000E+00  0.00000000E+00  0.00000000E+00
  0.00000000E+00  0.00000000E+00  0.00000000E+00
  0.00000000E+00  0.00000000E+00  0.00000000E+00
  0.00000000E+00  0.00000000E+00  0.00000000E+00
  0.00000000E+00  0.00000000E+00  0.00000000E+00
  0.00000000E+00  0.00000000E+00  0.00000000E+00
  0.00000000E+00  0.00000000E+00  0.00000000E+00
  0.00000000E+00  0.00000000E+00  0.00000000E+00
  0.00000000E+00  0.00000000E+00  0.00000000E+00
  0.00000000E+00  0.00000000E+00  0.00000000E+00
  0.00000000E+00  0.00000000E+00  0.00000000E+00
  0.00000000E+00  0.00000000E+00  0.00000000E+00
  0.00000000E+00  0.00000000E+00  0.00000000E+00
  0.00000000E+00  0.00000000E+00  0.00000000E+00
  0.00000000E+00  0.00000000E+00  0.00000000E+00
  0.00000000E+00  0.00000000E+00  0.00000000E+00
  0.00000000E+00  0.00000000E+00  0.00000000E+00
  0.00000000E+00  0.00000000E+00  0.00000000E+00
  0.00000000E+00  0.00000000E+00  0.00000000E+00
  0.00000000E+00  0.00000000E+00  0.00000000E+00
  0.00000000E+00  0.00000000E+00  0.00000000E+00
  0.00000000E+00  0.00000000E+00  0.00000000E+00
  0.00000000E+00  0.00000000E+00  0.00000000E+00
