Pd64
1.0
  11.0798020163988351    0.0000000000000000    0.0000000000000007
  -0.0000000000000007   11.0798020163988333    0.0000000000000007
   0.0000000000000000    0.0000000000000000   39.1730156999999934
Pd
64
Selective dynamics
direct
   0.0000000000000000    0.2500000000000000    0.5250000000000000 T T T Pd
   0.0000000000000000    0.5000000000000000    0.5250000000000000 T T T Pd
   0.0000000000000000    0.7500000000000001    0.5250000000000000 T T T Pd
   0.0000000000000000    0.0000000000000000    0.5250000000000000 T T T Pd
   0.2500000000000000    0.2500000000000000    0.5250000000000000 T T T Pd
   0.2500000000000001    0.5000000000000000    0.5250000000000000 T T T Pd
   0.2500000000000000    0.7500000000000001    0.5250000000000000 T T T Pd
   0.2500000000000001    0.0000000000000000    0.5250000000000000 T T T Pd
   0.5000000000000000    0.2500000000000000    0.5250000000000000 T T T Pd
   0.5000000000000000    0.5000000000000000    0.5250000000000000 T T T Pd
   0.5000000000000000    0.7500000000000001    0.5250000000000000 T T T Pd
   0.5000000000000000    0.0000000000000000    0.5250000000000000 T T T Pd
   0.7500000000000000    0.2500000000000000    0.5250000000000000 T T T Pd
   0.7500000000000000    0.5000000000000000    0.5250000000000000 T T T Pd
   0.7500000000000000    0.7500000000000001    0.5250000000000000 T T T Pd
   0.7500000000000001    0.0000000000000000    0.5250000000000000 T T T Pd
   0.1250000000000000    0.1250000000000000    0.5750000000000000 T T T Pd
   0.1250000000000000    0.3750000000000001    0.5750000000000000 T T T Pd
   0.1250000000000000    0.6250000000000001    0.5750000000000000 T T T Pd
   0.1250000000000000    0.8750000000000001    0.5750000000000000 T T T Pd
   0.3750000000000000    0.1250000000000000    0.5750000000000000 T T T Pd
   0.3750000000000000    0.3750000000000001    0.5750000000000000 T T T Pd
   0.3750000000000001    0.6250000000000001    0.5750000000000000 T T T Pd
   0.3750000000000001    0.8750000000000001    0.5750000000000000 T T T Pd
   0.6250000000000001    0.1250000000000000    0.5750000000000000 T T T Pd
   0.6250000000000001    0.3750000000000001    0.5750000000000000 T T T Pd
   0.6250000000000001    0.6250000000000001    0.5750000000000000 T T T Pd
   0.6249999999999999    0.8750000000000001    0.5750000000000000 T T T Pd
   0.8750000000000000    0.1250000000000000    0.5750000000000000 T T T Pd
   0.8750000000000000    0.3750000000000001    0.5750000000000000 T T T Pd
   0.8750000000000000    0.6250000000000001    0.5750000000000000 T T T Pd
   0.8750000000000000    0.8750000000000001    0.5750000000000000 T T T Pd
   0.2500000000000000    0.0000000000000000    0.4250000000000000 F F F Pd
   0.2500000000000000    0.2500000000000001    0.4250000000000000 F F F Pd
   0.2500000000000000    0.5000000000000000    0.4250000000000000 F F F Pd
   0.2500000000000000    0.7500000000000001    0.4250000000000000 F F F Pd
   0.4999999999999999    0.0000000000000000    0.4250000000000000 F F F Pd
   0.4999999999999999    0.2500000000000001    0.4250000000000000 F F F Pd
   0.5000000000000000    0.5000000000000000    0.4250000000000000 F F F Pd
   0.5000000000000000    0.7500000000000001    0.4250000000000000 F F F Pd
   0.7500000000000000    0.0000000000000000    0.4250000000000000 F F F Pd
   0.7500000000000000    0.2500000000000001    0.4250000000000000 F F F Pd
   0.7500000000000000    0.5000000000000000    0.4250000000000000 F F F Pd
   0.7500000000000000    0.7500000000000001    0.4250000000000000 F F F Pd
   0.9999999999999999    0.0000000000000000    0.4250000000000000 F F F Pd
   0.9999999999999999    0.2500000000000001    0.4250000000000000 F F F Pd
   0.9999999999999999    0.5000000000000000    0.4250000000000000 F F F Pd
   0.9999999999999999    0.7500000000000001    0.4249999999999999 F F F Pd
   0.1250000000000000    0.1250000000000000    0.4749999999999999 F F F Pd
   0.1250000000000000    0.3750000000000001    0.4749999999999999 F F F Pd
   0.1250000000000000    0.6250000000000000    0.4749999999999999 F F F Pd
   0.1250000000000000    0.8750000000000001    0.4749999999999999 F F F Pd
   0.3750000000000000    0.1250000000000000    0.4749999999999999 F F F Pd
   0.3750000000000000    0.3750000000000001    0.4749999999999999 F F F Pd
   0.3750000000000001    0.6250000000000000    0.4749999999999999 F F F Pd
   0.3750000000000001    0.8750000000000001    0.4749999999999999 F F F Pd
   0.6250000000000001    0.1250000000000000    0.4749999999999999 F F F Pd
   0.6250000000000001    0.3750000000000001    0.4749999999999999 F F F Pd
   0.6250000000000001    0.6250000000000000    0.4749999999999999 F F F Pd
   0.6250000000000000    0.8750000000000001    0.4749999999999999 F F F Pd
   0.8750000000000000    0.1250000000000000    0.4749999999999999 F F F Pd
   0.8750000000000000    0.3750000000000001    0.4749999999999999 F F F Pd
   0.8750000000000000    0.6250000000000000    0.4749999999999999 F F F Pd
   0.8750000000000000    0.8750000000000001    0.4749999999999999 F F F Pd
