Ba10 Sr10 Co24 H1 O69                   
    1.000000000000000     
    11.1057150000000000    0.0000000000000000    0.0000000000000000
    -0.0047930000000000    5.5528550000000001    0.0000000000000000
     0.0000000000000000    0.0000000000000000   87.2902260000000041
   Ba   Sr   Co   H    O 
    10    10    24     1    69
Direct
  0.9995840240426694  0.9997693191448553  0.5550853319185962
  0.5005606975878385  0.9996474413474294  0.5550673886042991
  0.2513477468012962  0.5010834520218661  0.6010341593365858
  0.7530001031750363  0.5007669370937731  0.6008850832570030
 -0.0001970959409045  0.9987495581509866  0.4637046449278827
  0.5012948620849761  0.9993314763517566  0.4637242295309110
  0.2496369198409109  0.4951312808652245  0.5095036512678526
  0.7494869871809796  0.4961982280719864  0.5094435667199465
  0.2499757327390052  0.5017485567625553  0.4168328871809078
  0.7501118553819515  0.4988245670209432  0.4168106284350013
  0.2506783063128852  0.4908658805002984  0.5553426538335914
  0.7503215692442546  0.4926217897001290  0.5552772965615334
  0.5002800200218671  0.0062261859748006  0.6009681728145876
  0.0000781123349292  0.0088155004339738  0.6010743186460418
  0.2527197716824365  0.4995641073892731  0.4633205155933299
  0.7515850525557598  0.4901015444337852  0.4633271044143553
  0.4997285011630412  0.9923838856994033  0.5089394123771648
  0.9998829792598054  0.9923245191890817  0.5089267213331646
  0.4999722438343809  0.0004173199055939  0.4175504674499230
  0.0002263126475097  0.0007428325107549  0.4175593797328681
  0.2487510031954878  0.0094650316421018  0.6227607780337879
  0.7481164807337638  0.0101492617335565  0.6217806718100090
  0.0020284418147294  0.5111686390310821  0.6219124157689514
  0.5020468339579159  0.5119371726717271  0.6218607797336990
  0.9996550633809859  0.5089005304690042  0.5781900055286078
  0.4996911944535201  0.5087428263724598  0.5780227469298116
  0.2499184120444430  0.0005983349751422  0.5773894101503418
  0.7499808196921278  0.0010635975370770  0.5773686520065427
  0.2509229140781171  0.9921951483414930  0.5322321552262481
  0.7501668316822999  0.9987701703729410  0.5320497415708548
  0.9998377432946317  0.4991938025479495  0.5320263838788216
  0.4998523809080004  0.4989809969996590  0.5320235152697502
  0.9992759732276362  0.5062819766903780  0.4863744756106051
  0.4992151828158446  0.5062222551708052  0.4863838357869114
  0.2500242278127969  0.0000801803883933  0.4866962244898509
  0.7500295777991220  0.9996118169313712  0.4866821428766619
  0.2502013943796603  0.9993110009523088  0.4413357207623534
  0.7513802097657692  0.9910941325379667  0.4407854162856883
  0.0002085891937334  0.4991243255145869  0.4413323672928753
  0.5002431378383613  0.4991157695707775  0.4413264396884528
  0.9981991822195981  0.5107098882965677  0.3953584135623369
  0.4982002464968731  0.5106856987025437  0.3953538849309489
  0.2518409224830679  0.0109958835804675  0.3953180277087429
  0.7517962333420107  0.0107328172471529  0.3952806690538945
  0.3347024954015013 -0.0000984532873900  0.6466145436963943
  0.0000086782178322  0.4999002746990369  0.6004371966928818
  0.4999904558433981  0.4998920397079832  0.6004364657483998
  0.9953044813341133  0.4998952825937121  0.5531787055208152
  0.5046931775356081  0.5000214961914962  0.5531803992194460
  0.1306593322208761  0.7918144333261257  0.6227324324072961
  0.6309991858501661  0.7876561197187631  0.6228991169839483
  0.3811550167239484  0.7124641539621389  0.6229029425962352
  0.8810691407146426  0.7125166988776725  0.6229049621812816
  0.3691474779719090  0.2125157639473549  0.6228867965115452
  0.8691102502412682  0.2081696375091115  0.6227526988399432
  0.1188136123125812  0.2876519414759242  0.6228982711415394
  0.6189297397916534  0.2874952709655208  0.6229036979552024
  0.2500064739222627  0.9999832742122211  0.5542892160521032
  0.7499997740894762  0.9999518231522639  0.5542761493234523
  0.2500054642880994  0.0000356226032060  0.5995881318898716
  0.7499979117667283  0.9999547275642697  0.5995629869723010
  0.3771931943477052  0.2802281800727721  0.5779856268584398
  0.8772091872524912  0.2802037923053671  0.5779986218813187
  0.1262709624239286  0.2247764739408294  0.5781135351309266
  0.6262721410822493  0.2247651280219107  0.5781155446408004
  0.1228476803860631  0.7198602714471645  0.5779813470438256
  0.6228461807973338  0.7199155106696260  0.5779890350175036
  0.3737491963610633  0.7751446442868943  0.5781137989406449
  0.8737472959356316  0.7751605335572491  0.5781159870474383
  0.9953158544301336  0.4999684621692341  0.5078631970487186
  0.4953181078333742  0.4999677797555199  0.5078633898073320
 -0.0000037113153409  0.4999448598078406  0.4644876425221963
  0.4999978954697157  0.4999493709019657  0.4644870757337781
  0.1380003301179334  0.7747311485814427  0.5327972640638712
  0.6380532953122701  0.7748742703834596  0.5327938008245686
  0.3880328811606456  0.7249758759980535  0.5327915820032892
  0.8880393881837201  0.7250167112306254  0.5327870193550257
  0.3619203419960296  0.2249577535321315  0.5327938022302880
  0.8619280714189033  0.2250209313113287  0.5327912383895711
  0.1119444085174542  0.2749810837354335  0.5327894515008706
  0.6119620846471095  0.2749224932805306  0.5327851114319716
  0.2500086529339184  0.9875235961166542  0.4635263752257314
  0.7500029820296535  0.9875275080155560  0.4635243409157081
  0.2499915448711223  0.9875702781659136  0.5088449270900047
  0.7499936710939135  0.9875786732128417  0.5088464010836308
  0.3928022622061399  0.2624617734896094  0.4869550398788424
  0.8928009402727936  0.2624617891204375  0.4869550996731608
  0.1428631871123983  0.2373887483355465  0.4864752032802249
  0.6428623719567110  0.2373883157618211  0.4864750280587924
  0.1072194658069120  0.7375567592912573  0.4869570378460098
  0.6072171274816961  0.7375536775491007  0.4869573767098274
  0.3571844101188874  0.7625026528778106  0.4864745975087236
  0.8571859345011719  0.7624991766275084  0.4864749191545835
  0.0000032149371177  0.4999597074833728  0.4191632605434800
  0.5000020558638641  0.4999587618978683  0.4191639286659670
  0.1380146271612773  0.7749437387421131  0.4406248598004465
  0.6379793198308150  0.7748154194711939  0.4406230759635252
  0.3857839376746870  0.7249761551913271  0.4406346136379425
  0.8857690564094476  0.7249730632785282  0.4406336363105213
  0.3619676303171629  0.2249921099207563  0.4406297357725030
  0.8619356216354425  0.2248751553961084  0.4406276321485166
  0.1142489670402397  0.2749440960336266  0.4406371395800083
  0.6142225411174806  0.2749656441457121  0.4406353543873976
  0.2499896382692197  0.9999655178376085  0.4167656471473779
  0.7499890293758830  0.9999234081201515  0.4167691292567231
  0.3881806070330552  0.2751231526803619  0.3937624425292403
  0.8881804926850477  0.2751193441334128  0.3937622162898530
  0.1380820047688837  0.2248120321428894  0.3937525130403526
  0.6380833848255608  0.2248189832999891  0.3937521257949577
  0.1118281688801120  0.7249393072912171  0.3937603397103794
  0.6118300338096003  0.7249417776822272  0.3937603423530255
  0.3619186224600655  0.7752268025680205  0.3937536294816566
  0.8619188896285084  0.7752220917867830  0.3937535586698083
  0.2498864527456089  0.0124357592778962  0.6432251993937570
 
  0.00000000E+00  0.00000000E+00  0.00000000E+00
  0.00000000E+00  0.00000000E+00  0.00000000E+00
  0.00000000E+00  0.00000000E+00  0.00000000E+00
  0.00000000E+00  0.00000000E+00  0.00000000E+00
  0.00000000E+00  0.00000000E+00  0.00000000E+00
  0.00000000E+00  0.00000000E+00  0.00000000E+00
  0.00000000E+00  0.00000000E+00  0.00000000E+00
  0.00000000E+00  0.00000000E+00  0.00000000E+00
  0.00000000E+00  0.00000000E+00  0.00000000E+00
  0.00000000E+00  0.00000000E+00  0.00000000E+00
  0.00000000E+00  0.00000000E+00  0.00000000E+00
  0.00000000E+00  0.00000000E+00  0.00000000E+00
  0.00000000E+00  0.00000000E+00  0.00000000E+00
  0.00000000E+00  0.00000000E+00  0.00000000E+00
  0.00000000E+00  0.00000000E+00  0.00000000E+00
  0.00000000E+00  0.00000000E+00  0.00000000E+00
  0.00000000E+00  0.00000000E+00  0.00000000E+00
  0.00000000E+00  0.00000000E+00  0.00000000E+00
  0.00000000E+00  0.00000000E+00  0.00000000E+00
  0.00000000E+00  0.00000000E+00  0.00000000E+00
  0.00000000E+00  0.00000000E+00  0.00000000E+00
  0.00000000E+00  0.00000000E+00  0.00000000E+00
  0.00000000E+00  0.00000000E+00  0.00000000E+00
  0.00000000E+00  0.00000000E+00  0.00000000E+00
  0.00000000E+00  0.00000000E+00  0.00000000E+00
  0.00000000E+00  0.00000000E+00  0.00000000E+00
  0.00000000E+00  0.00000000E+00  0.00000000E+00
  0.00000000E+00  0.00000000E+00  0.00000000E+00
  0.00000000E+00  0.00000000E+00  0.00000000E+00
  0.00000000E+00  0.00000000E+00  0.00000000E+00
  0.00000000E+00  0.00000000E+00  0.00000000E+00
  0.00000000E+00  0.00000000E+00  0.00000000E+00
  0.00000000E+00  0.00000000E+00  0.00000000E+00
  0.00000000E+00  0.00000000E+00  0.00000000E+00
  0.00000000E+00  0.00000000E+00  0.00000000E+00
  0.00000000E+00  0.00000000E+00  0.00000000E+00
  0.00000000E+00  0.00000000E+00  0.00000000E+00
  0.00000000E+00  0.00000000E+00  0.00000000E+00
  0.00000000E+00  0.00000000E+00  0.00000000E+00
  0.00000000E+00  0.00000000E+00  0.00000000E+00
  0.00000000E+00  0.00000000E+00  0.00000000E+00
  0.00000000E+00  0.00000000E+00  0.00000000E+00
  0.00000000E+00  0.00000000E+00  0.00000000E+00
  0.00000000E+00  0.00000000E+00  0.00000000E+00
  0.00000000E+00  0.00000000E+00  0.00000000E+00
  0.00000000E+00  0.00000000E+00  0.00000000E+00
  0.00000000E+00  0.00000000E+00  0.00000000E+00
  0.00000000E+00  0.00000000E+00  0.00000000E+00
  0.00000000E+00  0.00000000E+00  0.00000000E+00
  0.00000000E+00  0.00000000E+00  0.00000000E+00
  0.00000000E+00  0.00000000E+00  0.00000000E+00
  0.00000000E+00  0.00000000E+00  0.00000000E+00
  0.00000000E+00  0.00000000E+00  0.00000000E+00
  0.00000000E+00  0.00000000E+00  0.00000000E+00
  0.00000000E+00  0.00000000E+00  0.00000000E+00
  0.00000000E+00  0.00000000E+00  0.00000000E+00
  0.00000000E+00  0.00000000E+00  0.00000000E+00
  0.00000000E+00  0.00000000E+00  0.00000000E+00
  0.00000000E+00  0.00000000E+00  0.00000000E+00
  0.00000000E+00  0.00000000E+00  0.00000000E+00
  0.00000000E+00  0.00000000E+00  0.00000000E+00
  0.00000000E+00  0.00000000E+00  0.00000000E+00
  0.00000000E+00  0.00000000E+00  0.00000000E+00
  0.00000000E+00  0.00000000E+00  0.00000000E+00
  0.00000000E+00  0.00000000E+00  0.00000000E+00
  0.00000000E+00  0.00000000E+00  0.00000000E+00
  0.00000000E+00  0.00000000E+00  0.00000000E+00
  0.00000000E+00  0.00000000E+00  0.00000000E+00
  0.00000000E+00  0.00000000E+00  0.00000000E+00
  0.00000000E+00  0.00000000E+00  0.00000000E+00
  0.00000000E+00  0.00000000E+00  0.00000000E+00
  0.00000000E+00  0.00000000E+00  0.00000000E+00
  0.00000000E+00  0.00000000E+00  0.00000000E+00
  0.00000000E+00  0.00000000E+00  0.00000000E+00
  0.00000000E+00  0.00000000E+00  0.00000000E+00
  0.00000000E+00  0.00000000E+00  0.00000000E+00
  0.00000000E+00  0.00000000E+00  0.00000000E+00
  0.00000000E+00  0.00000000E+00  0.00000000E+00
  0.00000000E+00  0.00000000E+00  0.00000000E+00
  0.00000000E+00  0.00000000E+00  0.00000000E+00
  0.00000000E+00  0.00000000E+00  0.00000000E+00
  0.00000000E+00  0.00000000E+00  0.00000000E+00
  0.00000000E+00  0.00000000E+00  0.00000000E+00
  0.00000000E+00  0.00000000E+00  0.00000000E+00
  0.00000000E+00  0.00000000E+00  0.00000000E+00
  0.00000000E+00  0.00000000E+00  0.00000000E+00
  0.00000000E+00  0.00000000E+00  0.00000000E+00
  0.00000000E+00  0.00000000E+00  0.00000000E+00
  0.00000000E+00  0.00000000E+00  0.00000000E+00
  0.00000000E+00  0.00000000E+00  0.00000000E+00
  0.00000000E+00  0.00000000E+00  0.00000000E+00
  0.00000000E+00  0.00000000E+00  0.00000000E+00
  0.00000000E+00  0.00000000E+00  0.00000000E+00
  0.00000000E+00  0.00000000E+00  0.00000000E+00
  0.00000000E+00  0.00000000E+00  0.00000000E+00
  0.00000000E+00  0.00000000E+00  0.00000000E+00
  0.00000000E+00  0.00000000E+00  0.00000000E+00
  0.00000000E+00  0.00000000E+00  0.00000000E+00
  0.00000000E+00  0.00000000E+00  0.00000000E+00
  0.00000000E+00  0.00000000E+00  0.00000000E+00
  0.00000000E+00  0.00000000E+00  0.00000000E+00
  0.00000000E+00  0.00000000E+00  0.00000000E+00
  0.00000000E+00  0.00000000E+00  0.00000000E+00
  0.00000000E+00  0.00000000E+00  0.00000000E+00
  0.00000000E+00  0.00000000E+00  0.00000000E+00
  0.00000000E+00  0.00000000E+00  0.00000000E+00
  0.00000000E+00  0.00000000E+00  0.00000000E+00
  0.00000000E+00  0.00000000E+00  0.00000000E+00
  0.00000000E+00  0.00000000E+00  0.00000000E+00
  0.00000000E+00  0.00000000E+00  0.00000000E+00
  0.00000000E+00  0.00000000E+00  0.00000000E+00
  0.00000000E+00  0.00000000E+00  0.00000000E+00
  0.00000000E+00  0.00000000E+00  0.00000000E+00
  0.00000000E+00  0.00000000E+00  0.00000000E+00
