ALGO = Normal
AMIN = 0.01
EDIFF = 0.0001
EDIFFG = -0.05
ENCUT = 500
GGA = PE
IBRION = 2
ISIF = 0
ISMEAR = 0
ISPIN = 2
ISTART = 1
ISYM = 0
LASPH = True
LCHARG = False
LDAU = True
LDAUJ = 0 0 0 0
LDAUL = 0 0 2 0
LDAUPRINT = 0
LDAUTYPE = 2
LDAUU = 0 0 3.32 0
LMAXMIX = 4
LORBIT = 11
LREAL = False
LVTOT = False
LWAVE = True
MAGMOM = 4*0.6 4*6.0 12*0.6
NCORE = 4
NELM = 80
NSW = 300
PREC = Accurate
SIGMA = 0.2
SYMPREC = 1e-10
