Ba2 Sr2 Co4 O12
1.0
-3.924768 -3.928157 -0.000000
-3.924768 3.928157 0.000000
0.000000 0.000000 -7.935475
Ba Sr Co O
2 2 4 12
direct
0.000000 0.000000 1.000000 Ba2+
0.500000 0.500000 0.500000 Ba2+
0.500000 0.500000 1.000000 Sr2+
1.000000 0.000000 0.500000 Sr2+
0.500000 0.000000 0.750000 Co4+
0.000000 0.500000 0.750000 Co4+
0.000000 0.500000 0.250000 Co4+
0.500000 0.000000 0.250000 Co4+
0.000000 0.500000 0.500776 O2-
0.000000 0.500000 0.999224 O2-
0.275506 0.775506 0.750000 O2-
0.775166 0.724835 0.750000 O2-
0.724494 0.224494 0.750000 O2-
0.224835 0.275166 0.750000 O2-
0.500000 0.000000 0.000776 O2-
0.500000 0.000000 0.499224 O2-
0.775506 0.275506 0.250000 O2-
0.275166 0.224835 0.250000 O2-
0.224494 0.724494 0.250000 O2-
0.724835 0.775165 0.250000 O2-
