Ba10 Sr10 Co24 H1 O70                   
    1.000000000000000     
    11.1057150000000000    0.0000000000000000    0.0000000000000000
    -0.0047930000000000    5.5528550000000001    0.0000000000000000
     0.0000000000000000    0.0000000000000000   87.2902260000000041
   Ba   Sr   Co   H    O 
    10    10    24     1    70
Direct
  0.9996663267895117  0.9993208526986259  0.5551211710994510
  0.5004503390822242  0.9990759981479138  0.5551204095391031
  0.2530530244740721  0.5009216586164646  0.6008476355929507
  0.7529396364700862  0.5006883760780024  0.6008926958022084
  0.0007498158264944  0.9994900933623586  0.4637553645944320
  0.5007434140904570  0.9994311983161277  0.4637595604061462
  0.2496390452589413  0.4949842325460345  0.5096111236890261
  0.7494863893214959  0.4957947618541345  0.5095974913340992
  0.2498492067944478  0.5015244199942938  0.4168572136256433
  0.7496835394168411  0.5013159521733814  0.4168663111730478
  0.2513102258176959  0.4899202523750267  0.5554335951205626
  0.7503941721089616  0.4928410118039083  0.5553159473186241
  0.5001381501424996  0.0080052152497904  0.6011490248079985
  0.0000775367927621  0.0082054439434467  0.6011126365836676
  0.2526943394989126  0.4994757849821954  0.4633304397789555
  0.7501066806187471  0.4943646087291116  0.4634541434102066
  0.4997709762311898  0.9923571468809598  0.5090109774273377
  0.9999586688308936  0.9923194345912377  0.5090088778086268
  0.5001704754961698  0.0002991744762572  0.4175808149009155
  0.0001716979079330  0.0003590091295052  0.4175821648370695
  0.2484044327184904  0.0114613671429679  0.6219065476134180
  0.7477585385640050  0.0103140405224352  0.6217902049650913
  0.0013167652373833  0.5120358688426436  0.6218411648672535
  0.5021378850103456  0.5122161432794026  0.6218983572958301
  0.9997363654603775  0.5087663585054419  0.5782239056423490
  0.4997818810271318  0.5087983762260556  0.5782393324503927
  0.2499843782625484  0.0005705661138213  0.5773872865608778
  0.7499695113848226  0.0010511161530814  0.5773735177474429
  0.2509430879235952  0.9923279070481535  0.5323146210068557
  0.7502152152397776  0.9985453381203858  0.5320585039425613
  0.9998504070010957  0.4990191823563292  0.5320320974829661
  0.4998283873417093  0.4989196908337397  0.5320323213101327
  0.9992166109429338  0.5062189457051507  0.4863852106942640
  0.4991775128616684  0.5060443866011557  0.4864047687390704
  0.2500274910893926  0.0000362422110167  0.4867036924316227
  0.7500669336448190 -0.0001242569179186  0.4866976319558187
  0.2500350535925545  0.9996180975801742  0.4413437986053333
  0.7500958274538378  0.9993968318905834  0.4413413446396625
  0.0000062959481030  0.4999193036521333  0.4413466259717124
  0.5000704968660933  0.4999118977797509  0.4413405369966283
  0.9981638484965623  0.5106254748076373  0.3953766470762713
  0.4981669125700407  0.5106329292596890  0.3953749294756772
  0.2518441346760553  0.0109648055740372  0.3953302222113106
  0.7518478931031027  0.0109556288958628  0.3953314442129026
  0.1871132650183379  0.3217625808159665  0.6435632525167780
  0.0000118010282090  0.4998761343987014  0.6004380890408609
  0.5000012927193878  0.4998754671741629  0.6004376399981638
  0.9953042312511713  0.4998857098854842  0.5531797507144340
  0.5046933215002257  0.5000134377678641  0.5531801165016914
  0.1309532474722678  0.7875224237133090  0.6228921754501270
  0.6310025456793664  0.7876477067404291  0.6228995025518840
  0.3811248305112038  0.7124507567571225  0.6229036096516947
  0.8810827357572562  0.7125051550415140  0.6229062319875824
  0.3690956044378929  0.2125318917113304  0.6228887685055532
  0.8691238668689069  0.2081932532934867  0.6227544230502373
  0.1189151742922191  0.2876333362467658  0.6229067402529436
  0.6189257809788601  0.2875045580440582  0.6229035485939527
  0.2499916884881019 -0.0001090628659952  0.5542900581249058
  0.7499945132412948  0.9999182638121564  0.5542916164850568
  0.2500023549160077 -0.0000413584642463  0.5995813899654842
  0.7500017621439045 -0.0000516297058683  0.5995650483060830
  0.3771940772237345  0.2801912464617029  0.5779864198441362
  0.8772441116577289  0.2801558756381823  0.5780228410065947
  0.1262684838931040  0.2247826619078549  0.5781147884322926
  0.6262736630237369  0.2247590670773975  0.5781172757959058
  0.1228498800527264  0.7198712818206214  0.5779862690889804
  0.6228473478701800  0.7199068733862135  0.5779957318159754
  0.3737551663956824  0.7751201040999315  0.5781151897081822
  0.8737461559916092  0.7751567394218228  0.5781174578766795
  0.9953194936172460  0.4999604404294845  0.5078652706141834
  0.4953214741699188  0.4999613171567892  0.5078655735742834
 -0.0000006897691423  0.4999487331660260  0.4644890779509125
  0.5000006002209819  0.4999479710577505  0.4644887823322559
  0.1379984435426644  0.7747362405376549  0.5327986022933869
  0.6380485882896579  0.7748683027590969  0.5327950718673286
  0.3880322482250825  0.7249705118098951  0.5327928937040998
  0.8880384472171678  0.7250107597647670  0.5327883155283951
  0.3619195068637264  0.2249505269231730  0.5327962041033881
  0.8619336660286553  0.2250142636608619  0.5327927416380606
  0.1119465188030593  0.2749702131750371  0.5327907148430902
  0.6119615619428223  0.2749104843915012  0.5327864147934092
  0.2500113982834730  0.9875231754390997  0.4635269838189736
  0.7500072556906696  0.9875264356401336  0.4635269147972290
  0.2499924518338104  0.9875719843992560  0.5088457868196667
  0.7499946167399014  0.9875744180474075  0.5088471246681697
  0.3928020565578805  0.2624630647309413  0.4869557479180770
  0.8928012585892560  0.2624624771127245  0.4869558202722535
  0.1428663754120650  0.2373908685091744  0.4864758600179275
  0.6428627542353552  0.2373948713283460  0.4864757486058359
  0.1072204266547131  0.7375531270915475  0.4869579594711453
  0.6072210600696325  0.7375524666105735  0.4869579698849450
  0.3571836621384092  0.7625018615614413  0.4864752970869804
  0.8571836362101282  0.7625003762056531  0.4864754140768345
 -0.0000001996888838  0.4999544356725817  0.4191655484268674
  0.4999996241862388  0.4999533607909127  0.4191653089220795
  0.1380152059361319  0.7749353307118837  0.4406257759391224
  0.6380117924930266  0.7749323846305958  0.4406258140980477
  0.3857777612408075  0.7249722654588034  0.4406356152331319
  0.8857798717402751  0.7249676843660700  0.4406354523367519
  0.3619681724498018  0.2249809409478182  0.4406305423044359
  0.8619660307183609  0.2249772939519332  0.4406306458474412
  0.1142498550388365  0.2749354923995709  0.4406382934862327
  0.6142526607167779  0.2749294809924894  0.4406386472203336
  0.2499900088986756 -0.0000417189944848  0.4167673215395448
  0.7499899915408158 -0.0000434142700485  0.4167671629895605
  0.3881808890469907  0.2751164720290186  0.3937637488171445
  0.8881810125033540  0.2751174978299404  0.3937637522018717
  0.1380813988965367  0.2248049328005365  0.3937535599987873
  0.6380817255689816  0.2248042325568286  0.3937535595884518
  0.1118275380432935  0.7249306791219520  0.3937618019910913
  0.6118272819861527  0.7249298344228513  0.3937617830959668
  0.3619185076256385  0.7752199591304734  0.3937548704087524
  0.8619180245696203  0.7752198560529062  0.3937548922118468
  0.2500015631816784  0.0122205111460420  0.6432359482693009
  0.2094990419398620  0.2000542544305050  0.6515724163807080
 
  0.00000000E+00  0.00000000E+00  0.00000000E+00
  0.00000000E+00  0.00000000E+00  0.00000000E+00
  0.00000000E+00  0.00000000E+00  0.00000000E+00
  0.00000000E+00  0.00000000E+00  0.00000000E+00
  0.00000000E+00  0.00000000E+00  0.00000000E+00
  0.00000000E+00  0.00000000E+00  0.00000000E+00
  0.00000000E+00  0.00000000E+00  0.00000000E+00
  0.00000000E+00  0.00000000E+00  0.00000000E+00
  0.00000000E+00  0.00000000E+00  0.00000000E+00
  0.00000000E+00  0.00000000E+00  0.00000000E+00
  0.00000000E+00  0.00000000E+00  0.00000000E+00
  0.00000000E+00  0.00000000E+00  0.00000000E+00
  0.00000000E+00  0.00000000E+00  0.00000000E+00
  0.00000000E+00  0.00000000E+00  0.00000000E+00
  0.00000000E+00  0.00000000E+00  0.00000000E+00
  0.00000000E+00  0.00000000E+00  0.00000000E+00
  0.00000000E+00  0.00000000E+00  0.00000000E+00
  0.00000000E+00  0.00000000E+00  0.00000000E+00
  0.00000000E+00  0.00000000E+00  0.00000000E+00
  0.00000000E+00  0.00000000E+00  0.00000000E+00
  0.00000000E+00  0.00000000E+00  0.00000000E+00
  0.00000000E+00  0.00000000E+00  0.00000000E+00
  0.00000000E+00  0.00000000E+00  0.00000000E+00
  0.00000000E+00  0.00000000E+00  0.00000000E+00
  0.00000000E+00  0.00000000E+00  0.00000000E+00
  0.00000000E+00  0.00000000E+00  0.00000000E+00
  0.00000000E+00  0.00000000E+00  0.00000000E+00
  0.00000000E+00  0.00000000E+00  0.00000000E+00
  0.00000000E+00  0.00000000E+00  0.00000000E+00
  0.00000000E+00  0.00000000E+00  0.00000000E+00
  0.00000000E+00  0.00000000E+00  0.00000000E+00
  0.00000000E+00  0.00000000E+00  0.00000000E+00
  0.00000000E+00  0.00000000E+00  0.00000000E+00
  0.00000000E+00  0.00000000E+00  0.00000000E+00
  0.00000000E+00  0.00000000E+00  0.00000000E+00
  0.00000000E+00  0.00000000E+00  0.00000000E+00
  0.00000000E+00  0.00000000E+00  0.00000000E+00
  0.00000000E+00  0.00000000E+00  0.00000000E+00
  0.00000000E+00  0.00000000E+00  0.00000000E+00
  0.00000000E+00  0.00000000E+00  0.00000000E+00
  0.00000000E+00  0.00000000E+00  0.00000000E+00
  0.00000000E+00  0.00000000E+00  0.00000000E+00
  0.00000000E+00  0.00000000E+00  0.00000000E+00
  0.00000000E+00  0.00000000E+00  0.00000000E+00
  0.00000000E+00  0.00000000E+00  0.00000000E+00
  0.00000000E+00  0.00000000E+00  0.00000000E+00
  0.00000000E+00  0.00000000E+00  0.00000000E+00
  0.00000000E+00  0.00000000E+00  0.00000000E+00
  0.00000000E+00  0.00000000E+00  0.00000000E+00
  0.00000000E+00  0.00000000E+00  0.00000000E+00
  0.00000000E+00  0.00000000E+00  0.00000000E+00
  0.00000000E+00  0.00000000E+00  0.00000000E+00
  0.00000000E+00  0.00000000E+00  0.00000000E+00
  0.00000000E+00  0.00000000E+00  0.00000000E+00
  0.00000000E+00  0.00000000E+00  0.00000000E+00
  0.00000000E+00  0.00000000E+00  0.00000000E+00
  0.00000000E+00  0.00000000E+00  0.00000000E+00
  0.00000000E+00  0.00000000E+00  0.00000000E+00
  0.00000000E+00  0.00000000E+00  0.00000000E+00
  0.00000000E+00  0.00000000E+00  0.00000000E+00
  0.00000000E+00  0.00000000E+00  0.00000000E+00
  0.00000000E+00  0.00000000E+00  0.00000000E+00
  0.00000000E+00  0.00000000E+00  0.00000000E+00
  0.00000000E+00  0.00000000E+00  0.00000000E+00
  0.00000000E+00  0.00000000E+00  0.00000000E+00
  0.00000000E+00  0.00000000E+00  0.00000000E+00
  0.00000000E+00  0.00000000E+00  0.00000000E+00
  0.00000000E+00  0.00000000E+00  0.00000000E+00
  0.00000000E+00  0.00000000E+00  0.00000000E+00
  0.00000000E+00  0.00000000E+00  0.00000000E+00
  0.00000000E+00  0.00000000E+00  0.00000000E+00
  0.00000000E+00  0.00000000E+00  0.00000000E+00
  0.00000000E+00  0.00000000E+00  0.00000000E+00
  0.00000000E+00  0.00000000E+00  0.00000000E+00
  0.00000000E+00  0.00000000E+00  0.00000000E+00
  0.00000000E+00  0.00000000E+00  0.00000000E+00
  0.00000000E+00  0.00000000E+00  0.00000000E+00
  0.00000000E+00  0.00000000E+00  0.00000000E+00
  0.00000000E+00  0.00000000E+00  0.00000000E+00
  0.00000000E+00  0.00000000E+00  0.00000000E+00
  0.00000000E+00  0.00000000E+00  0.00000000E+00
  0.00000000E+00  0.00000000E+00  0.00000000E+00
  0.00000000E+00  0.00000000E+00  0.00000000E+00
  0.00000000E+00  0.00000000E+00  0.00000000E+00
  0.00000000E+00  0.00000000E+00  0.00000000E+00
  0.00000000E+00  0.00000000E+00  0.00000000E+00
  0.00000000E+00  0.00000000E+00  0.00000000E+00
  0.00000000E+00  0.00000000E+00  0.00000000E+00
  0.00000000E+00  0.00000000E+00  0.00000000E+00
  0.00000000E+00  0.00000000E+00  0.00000000E+00
  0.00000000E+00  0.00000000E+00  0.00000000E+00
  0.00000000E+00  0.00000000E+00  0.00000000E+00
  0.00000000E+00  0.00000000E+00  0.00000000E+00
  0.00000000E+00  0.00000000E+00  0.00000000E+00
  0.00000000E+00  0.00000000E+00  0.00000000E+00
  0.00000000E+00  0.00000000E+00  0.00000000E+00
  0.00000000E+00  0.00000000E+00  0.00000000E+00
  0.00000000E+00  0.00000000E+00  0.00000000E+00
  0.00000000E+00  0.00000000E+00  0.00000000E+00
  0.00000000E+00  0.00000000E+00  0.00000000E+00
  0.00000000E+00  0.00000000E+00  0.00000000E+00
  0.00000000E+00  0.00000000E+00  0.00000000E+00
  0.00000000E+00  0.00000000E+00  0.00000000E+00
  0.00000000E+00  0.00000000E+00  0.00000000E+00
  0.00000000E+00  0.00000000E+00  0.00000000E+00
  0.00000000E+00  0.00000000E+00  0.00000000E+00
  0.00000000E+00  0.00000000E+00  0.00000000E+00
  0.00000000E+00  0.00000000E+00  0.00000000E+00
  0.00000000E+00  0.00000000E+00  0.00000000E+00
  0.00000000E+00  0.00000000E+00  0.00000000E+00
  0.00000000E+00  0.00000000E+00  0.00000000E+00
  0.00000000E+00  0.00000000E+00  0.00000000E+00
  0.00000000E+00  0.00000000E+00  0.00000000E+00
  0.00000000E+00  0.00000000E+00  0.00000000E+00
  0.00000000E+00  0.00000000E+00  0.00000000E+00
