Ir32 O64                                
   1.00000000000000     
     6.3790139999999997    0.0000000000000000    0.0000000000000000
     0.0000000000000000   12.8550290000000000    0.0000000000000000
     0.0000000000000000    0.0000000000000000   38.5650860000000009
   Ir   O 
    32    64
Direct
  0.2500000024483375  0.1250005113995917  0.3736935805598476
  0.2499999957514333  0.6250015315625692  0.3736951374632708
  0.7499999975605470  0.1250005113924214  0.3736935806654935
  0.7500000042451859  0.6250015316784774  0.3736951375560022
  0.0000000000581623  0.3749995529426146  0.3766336126331628
 -0.0000000003378841  0.8750003183764317  0.3766334603081036
  0.5000000000727088  0.3749995523994989  0.3766336131413173
  0.4999999999584880  0.8750003187408256  0.3766334588904754
  0.2499999995884484  0.3749989883436999  0.4582447716568890
  0.2500000004716718  0.8750004503047166  0.4582444956266936
  0.7499999999501498  0.3749989885422580  0.4582447719683116
  0.7500000001936076  0.8750004499959754  0.4582444957348724
  0.0000000012502172  0.1249989986021389  0.4579972424312042
  0.0000000011870279  0.6250005091979007  0.4579973254583473
  0.4999999985862170  0.1249989982920289  0.4579972426252872
  0.4999999988700865  0.6250005094450909  0.4579973251702605
  0.2500000005350383  0.1250019018187697  0.5417554991488426
  0.2499999996124771  0.6249975269489544  0.5417553557620863
  0.7500000004757712  0.1250019015816912  0.5417554989300828
  0.7500000001931147  0.6249975272800873  0.5417553556478482
  0.0000000011149910  0.3749989067355207  0.5420019369621918
  0.0000000011819340  0.8750006196199095  0.5420020325711347
  0.4999999989062734  0.3749989067567355  0.5420019367318698
  0.4999999987400145  0.8750006196284341  0.5420020325651053
  0.2499999988741006  0.3749983998279520  0.6263056885893481
  0.2500000018434992  0.8750014046013620  0.6263070159793315
  0.7500000009821016  0.3749983998583321  0.6263056883843675
  0.7499999983615673  0.8750014045062997  0.6263070158233467
 -0.0000000002185795  0.1249995374470102  0.6233673800099729
 -0.0000000004374107  0.6249999239130228  0.6233684804986274
  0.4999999999971668  0.1249995372642291  0.6233673790899955
  0.5000000002435940  0.6249999242477072  0.6233684810392388
  0.0000000001437539  0.1250000436815843  0.3423649038208939
 -0.0000000000230794  0.6250000566783549  0.3423648601560589
  0.4999999999333212  0.1250000436717010  0.3423649038065734
  0.4999999999463074  0.6250000566814530  0.3423648601770945
  0.2500000002829923  0.2771490989955208  0.3749724331014092
  0.2499999995277656  0.7771493535752472  0.3749724375342298
  0.7499999995674547  0.2771490990045651  0.3749724330993444
  0.7500000003148317  0.7771493536343247  0.3749724375342041
 -0.0000000024192732  0.1250000304080834  0.4075977097402923
  0.0000000021063393  0.6250000525681749  0.4075977083263166
  0.5000000021802342  0.1250000304119844  0.4075977097326050
  0.4999999982040893  0.6250000525664680  0.4075977084076180
  0.2500000005727419  0.4728508008530971  0.3749724413774905
  0.2499999998025687  0.9728509188104659  0.3749724242249007
  0.7499999996584324  0.4728508007605933  0.3749724413871781
  0.7500000004057132  0.9728509188169152  0.3749724242090530
  0.0000000146308733  0.3750000155964644  0.4257603853386711
  0.0000000068806044  0.8750000473431266  0.4257603731102709
  0.4999999852243522  0.3750000156204949  0.4257603853914616
  0.4999999932616222  0.8750000473258538  0.4257603729789681
  0.2500000000073456  0.0271489678013328  0.4583287877088631
  0.2499999988288459  0.5271489337813540  0.4583287890827756
  0.7499999999100722  0.0271489678176225  0.4583287877261968
  0.7500000010752024  0.5271489338005509  0.4583287890524295
 -0.0000000020331805  0.3750000212323489  0.4909673598006791
 -0.0000000010359977  0.8750000434918738  0.4909673699593665
  0.5000000021380817  0.3750000212576679  0.4909673597834249
  0.5000000008362254  0.8750000434763532  0.4909673699517533
  0.2500000000868984  0.2228509321172931  0.4583287882147293
  0.2499999989751099  0.7228512131616311  0.4583287880686385
  0.7499999999459994  0.2228509321114722  0.4583287882170292
  0.7500000012434173  0.7228512130421612  0.4583287880500841
 -0.0000000011684786  0.1250000458651483  0.5090324328128911
 -0.0000000011515502  0.6250000184425495  0.5090324549241907
  0.5000000014068139  0.1250000458730463  0.5090324327960113
  0.5000000009788304  0.6250000184389982  0.5090324549419251
  0.2499999989410699  0.2771487797138411  0.5416710005456050
  0.2500000008784609  0.7771490189542021  0.5416710008827409
  0.7500000009658534  0.2771487797220716  0.5416710005367588
  0.7499999991815720  0.7771490190275339  0.5416710008996219
  0.0000000112636407  0.1250000411569997  0.5742395051950928
  0.0000000053531478  0.6250000263420659  0.5742395577288260
  0.4999999885269812  0.1250000411298410  0.5742395051452275
  0.4999999947930605  0.6250000263673652  0.5742395577356615
  0.2499999989976365  0.4728509827652170  0.5416710006460239
  0.2500000009503556  0.9728512676586232  0.5416710005896609
  0.7500000011037953  0.4728509827677783  0.5416710006324543
  0.7499999989021803  0.9728512675980402  0.5416710006148860
 -0.0000000006416514  0.3750000159835146  0.5924020293166256
 -0.0000000002388540  0.8750000489433217  0.5924020663943435
  0.5000000005481442  0.3750000159557596  0.5924020292721889
  0.5000000002038492  0.8750000489641243  0.5924020664238591
  0.2499999999784973  0.0271492874045296  0.6250273300182692
  0.2500000000433671  0.5271492207479347  0.6250273307447002
  0.7499999999364462  0.0271492874485314  0.6250273300144886
  0.7499999999548875  0.5271492207268094  0.6250273307571143
 -0.0000000000167979  0.3750000265011229  0.6576350270912164
  0.0000000000266074  0.8750000469872072  0.6576350286661869
  0.5000000000179323  0.3750000265115285  0.6576350270895944
  0.4999999999641809  0.8750000469851450  0.6576350286742800
  0.2500000000597765  0.2228506682345398  0.6250273129130366
  0.2499999998282689  0.7228508926033046  0.6250273471882456
  0.7499999998593962  0.2228506682485859  0.6250273129185834
  0.7500000001128573  0.7228508925823256  0.6250273471961583
 
  0.00000000E+00  0.00000000E+00  0.00000000E+00
  0.00000000E+00  0.00000000E+00  0.00000000E+00
  0.00000000E+00  0.00000000E+00  0.00000000E+00
  0.00000000E+00  0.00000000E+00  0.00000000E+00
  0.00000000E+00  0.00000000E+00  0.00000000E+00
  0.00000000E+00  0.00000000E+00  0.00000000E+00
  0.00000000E+00  0.00000000E+00  0.00000000E+00
  0.00000000E+00  0.00000000E+00  0.00000000E+00
  0.00000000E+00  0.00000000E+00  0.00000000E+00
  0.00000000E+00  0.00000000E+00  0.00000000E+00
  0.00000000E+00  0.00000000E+00  0.00000000E+00
  0.00000000E+00  0.00000000E+00  0.00000000E+00
  0.00000000E+00  0.00000000E+00  0.00000000E+00
  0.00000000E+00  0.00000000E+00  0.00000000E+00
  0.00000000E+00  0.00000000E+00  0.00000000E+00
  0.00000000E+00  0.00000000E+00  0.00000000E+00
  0.00000000E+00  0.00000000E+00  0.00000000E+00
  0.00000000E+00  0.00000000E+00  0.00000000E+00
  0.00000000E+00  0.00000000E+00  0.00000000E+00
  0.00000000E+00  0.00000000E+00  0.00000000E+00
  0.00000000E+00  0.00000000E+00  0.00000000E+00
  0.00000000E+00  0.00000000E+00  0.00000000E+00
  0.00000000E+00  0.00000000E+00  0.00000000E+00
  0.00000000E+00  0.00000000E+00  0.00000000E+00
  0.00000000E+00  0.00000000E+00  0.00000000E+00
  0.00000000E+00  0.00000000E+00  0.00000000E+00
  0.00000000E+00  0.00000000E+00  0.00000000E+00
  0.00000000E+00  0.00000000E+00  0.00000000E+00
  0.00000000E+00  0.00000000E+00  0.00000000E+00
  0.00000000E+00  0.00000000E+00  0.00000000E+00
  0.00000000E+00  0.00000000E+00  0.00000000E+00
  0.00000000E+00  0.00000000E+00  0.00000000E+00
  0.00000000E+00  0.00000000E+00  0.00000000E+00
  0.00000000E+00  0.00000000E+00  0.00000000E+00
  0.00000000E+00  0.00000000E+00  0.00000000E+00
  0.00000000E+00  0.00000000E+00  0.00000000E+00
  0.00000000E+00  0.00000000E+00  0.00000000E+00
  0.00000000E+00  0.00000000E+00  0.00000000E+00
  0.00000000E+00  0.00000000E+00  0.00000000E+00
  0.00000000E+00  0.00000000E+00  0.00000000E+00
  0.00000000E+00  0.00000000E+00  0.00000000E+00
  0.00000000E+00  0.00000000E+00  0.00000000E+00
  0.00000000E+00  0.00000000E+00  0.00000000E+00
  0.00000000E+00  0.00000000E+00  0.00000000E+00
  0.00000000E+00  0.00000000E+00  0.00000000E+00
  0.00000000E+00  0.00000000E+00  0.00000000E+00
  0.00000000E+00  0.00000000E+00  0.00000000E+00
  0.00000000E+00  0.00000000E+00  0.00000000E+00
  0.00000000E+00  0.00000000E+00  0.00000000E+00
  0.00000000E+00  0.00000000E+00  0.00000000E+00
  0.00000000E+00  0.00000000E+00  0.00000000E+00
  0.00000000E+00  0.00000000E+00  0.00000000E+00
  0.00000000E+00  0.00000000E+00  0.00000000E+00
  0.00000000E+00  0.00000000E+00  0.00000000E+00
  0.00000000E+00  0.00000000E+00  0.00000000E+00
  0.00000000E+00  0.00000000E+00  0.00000000E+00
  0.00000000E+00  0.00000000E+00  0.00000000E+00
  0.00000000E+00  0.00000000E+00  0.00000000E+00
  0.00000000E+00  0.00000000E+00  0.00000000E+00
  0.00000000E+00  0.00000000E+00  0.00000000E+00
  0.00000000E+00  0.00000000E+00  0.00000000E+00
  0.00000000E+00  0.00000000E+00  0.00000000E+00
  0.00000000E+00  0.00000000E+00  0.00000000E+00
  0.00000000E+00  0.00000000E+00  0.00000000E+00
  0.00000000E+00  0.00000000E+00  0.00000000E+00
  0.00000000E+00  0.00000000E+00  0.00000000E+00
  0.00000000E+00  0.00000000E+00  0.00000000E+00
  0.00000000E+00  0.00000000E+00  0.00000000E+00
  0.00000000E+00  0.00000000E+00  0.00000000E+00
  0.00000000E+00  0.00000000E+00  0.00000000E+00
  0.00000000E+00  0.00000000E+00  0.00000000E+00
  0.00000000E+00  0.00000000E+00  0.00000000E+00
  0.00000000E+00  0.00000000E+00  0.00000000E+00
  0.00000000E+00  0.00000000E+00  0.00000000E+00
  0.00000000E+00  0.00000000E+00  0.00000000E+00
  0.00000000E+00  0.00000000E+00  0.00000000E+00
  0.00000000E+00  0.00000000E+00  0.00000000E+00
  0.00000000E+00  0.00000000E+00  0.00000000E+00
  0.00000000E+00  0.00000000E+00  0.00000000E+00
  0.00000000E+00  0.00000000E+00  0.00000000E+00
  0.00000000E+00  0.00000000E+00  0.00000000E+00
  0.00000000E+00  0.00000000E+00  0.00000000E+00
  0.00000000E+00  0.00000000E+00  0.00000000E+00
  0.00000000E+00  0.00000000E+00  0.00000000E+00
  0.00000000E+00  0.00000000E+00  0.00000000E+00
  0.00000000E+00  0.00000000E+00  0.00000000E+00
  0.00000000E+00  0.00000000E+00  0.00000000E+00
  0.00000000E+00  0.00000000E+00  0.00000000E+00
  0.00000000E+00  0.00000000E+00  0.00000000E+00
  0.00000000E+00  0.00000000E+00  0.00000000E+00
  0.00000000E+00  0.00000000E+00  0.00000000E+00
  0.00000000E+00  0.00000000E+00  0.00000000E+00
  0.00000000E+00  0.00000000E+00  0.00000000E+00
  0.00000000E+00  0.00000000E+00  0.00000000E+00
  0.00000000E+00  0.00000000E+00  0.00000000E+00
  0.00000000E+00  0.00000000E+00  0.00000000E+00
