H1 Ir32 O68                             
   1.00000000000000     
     6.3790139999999997    0.0000000000000000    0.0000000000000000
     0.0000000000000000   12.8550290000000000    0.0000000000000000
     0.0000000000000000    0.0000000000000000   38.5650860000000009
   H    Ir   O 
     1    32    68
Direct
  0.8497616558828774  0.6249999206171509  0.6832750147103910
  0.2500701926440300  0.1249998788109088  0.3735236477734570
  0.2500720199393597  0.6249998925076373  0.3735244026878596
  0.7500687558205945  0.1249998848271970  0.3735235051979722
  0.7500660126676622  0.6249998353394599  0.3735229478327596
  0.0000618691395745  0.3749987971997537  0.3762989800333796
  0.0000619340649670  0.8750009745154351  0.3762990095266231
  0.5000591740061262  0.3749994984216445  0.3763035868085658
  0.5000605830223063  0.8750015469603688  0.3763028190251432
  0.2500575892762813  0.3750096166943020  0.4579789153530313
  0.2500574505752082  0.8749904006834083  0.4579789065335130
  0.7500592412198511  0.3750042277192553  0.4579790190133592
  0.7500594081027397  0.8749957906955016  0.4579790109689343
  0.0000739413852683  0.1249998929160947  0.4579289033294114
  0.0000972876197742  0.6249995407907728  0.4579263963276357
  0.5000711555836831  0.1249997947047107  0.4579292777421783
  0.5002054289844081  0.6250062966500063  0.4579207046564022
  0.2500500487408354  0.1249999926346928  0.5412543278937788
  0.2500967439116270  0.6249997377894295  0.5412596057878911
  0.7500613480671243  0.1249999855104347  0.5412554518765129
  0.7499569087246513  0.6249997304392315  0.5412851965960207
  0.0001172190298773  0.3749249481635003  0.5419467138659561
  0.0001172224492589  0.8750748148740833  0.5419467013177567
  0.5001028451097399  0.3749539470816012  0.5419443465950083
  0.5001027613850506  0.8750458290354377  0.5419443378813205
  0.2503318048332057  0.3752364402940642  0.6263328655989433
  0.2503316641580086  0.8747629640467780  0.6263326845455102
  0.7501309366454602  0.3750335143874981  0.6263359133334535
  0.7501309231020270  0.8749662079605709  0.6263357573298828
  0.0000988348129913  0.1249998578961565  0.6263037297704231
 -0.0021390078112453  0.6249996450005330  0.6246138056691812
  0.5000167243142514  0.1249997998112177  0.6263009292475293
  0.4982872393644667  0.6250000733899039  0.6261292533086051
  0.0000183643020378  0.1249999696704883  0.3423469975034708
  0.0000176515592594  0.6249999778160921  0.3423465076355777
  0.5000183263705767  0.1249999648665312  0.3423469563505144
  0.5000194997611650  0.6249999792140940  0.3423465726914772
  0.2500214079517856  0.2771427877340528  0.3749552456364639
  0.2500221511785982  0.7771429176543521  0.3749552646023593
  0.7500224891824691  0.2771427937902795  0.3749552509914634
  0.7500217672636900  0.7771429497755761  0.3749552616743234
  0.0000291463155279  0.1249999998235231  0.4075686999795518
  0.0000309709563932  0.6250000342730508  0.4075683251622107
  0.5000291258243216  0.1250000018204468  0.4075686164608532
  0.5000301415001859  0.6250000622432326  0.4075677701078774
  0.2500220964548873  0.4728571370296386  0.3749552704694557
  0.2500214102171511  0.9728572307853003  0.3749552537342116
  0.7500217268983789  0.4728570967904264  0.3749552681682578
  0.7500225955185863  0.9728572295128001  0.3749552585054168
  0.0000228527990985  0.3749998793040860  0.4257216642769955
  0.0000228614869806  0.8750001270101447  0.4257216560011931
  0.5000226398344966  0.3749998303666905  0.4257220439405782
  0.5000226366339148  0.8750001690351067  0.4257220199846596
  0.2500247316106532  0.0271471803650922  0.4583137095428294
  0.2500372476042551  0.5271484490953557  0.4583139106106502
  0.7500241507470921  0.0271472304228680  0.4583137136741326
  0.7500306646737838  0.5271478401755495  0.4583137314278853
  0.0000269471255601  0.3749995979236622  0.4909446225984439
  0.0000269626869530  0.8750004135562229  0.4909446211043120
  0.5000258812791100  0.3750001232879313  0.4909456581715217
  0.5000258733285630  0.8749998847779203  0.4909456461959497
  0.2500247391994073  0.2228528032013724  0.4583137130666108
  0.2500367962020632  0.7228517913682682  0.4583139098247708
  0.7500241553916317  0.2228527520693155  0.4583137172615265
  0.7500311274993642  0.7228523982037575  0.4583137312586626
  0.0000182244668099  0.1249999712599436  0.5090152804614705
  0.0000070939901121  0.6250000172559990  0.5090162524944002
  0.5000196085781010  0.1249999713639133  0.5090154352186549
  0.5000878934027609  0.6250000441999005  0.5090172464209878
  0.2500274656070619  0.2771359661618637  0.5416514201844337
  0.2500357557668630  0.7771448587146921  0.5416515643893308
  0.7500281588899078  0.2771366760631643  0.5416514522422542
  0.7500195725830588  0.7771459074225324  0.5416512658799307
  0.0000245610931937  0.1249999898751156  0.5742627287117256
  0.0004171661866524  0.6250000164574372  0.5742298228599516
  0.5000214554571418  0.1249999898836829  0.5742627274721916
  0.5000412626826991  0.6250000317519530  0.5742600314625880
  0.2500357755689752  0.4728551689126094  0.5416515644620463
  0.2500274732625442  0.9728640385902577  0.5416514225212652
  0.7500195903493730  0.4728541254140741  0.5416512660074633
  0.7500281605886754  0.9728633281982884  0.5416514550333040
  0.0000423633642891  0.3750033809803669  0.5923880386266338
  0.0000423424539076  0.8749966178651626  0.5923880343406904
  0.5000467695249635  0.3749963897128407  0.5923878089289295
  0.5000467672648417  0.8750036083685476  0.5923878072864666
  0.2500005129014708  0.0278667881614522  0.6238514369077167
  0.2499686606832680  0.5278815497971715  0.6238570400640485
  0.7500026880713386  0.0278696341891098  0.6238511608399746
  0.7499608429284823  0.5278664651401817  0.6238514337658431
  0.0000184440578357  0.3749959521652509  0.6576098519444487
  0.0000183822558931  0.8750040271991713  0.6576098244810424
  0.5000483304982409  0.3750029723268242  0.6576109305575435
  0.5000483795662015  0.8749969975008639  0.6576109046892309
  0.2500006909977178  0.2221326005420673  0.6238512655600255
  0.2499690459787932  0.7221212785444894  0.6238568176137168
  0.7500030161943086  0.2221305591334060  0.6238513182054052
  0.7499603237333380  0.7221324660189817  0.6238512208132532
  0.0000182724337405  0.1249999445217800  0.6722385497934802
  0.5000259744300981  0.1249999441872280  0.6722393153454547
  0.5006068517257678  0.6250000463793077  0.6722383957395095
 -0.0080089336684122  0.6249977944083771  0.6736476519220044
 
  0.00000000E+00  0.00000000E+00  0.00000000E+00
  0.00000000E+00  0.00000000E+00  0.00000000E+00
  0.00000000E+00  0.00000000E+00  0.00000000E+00
  0.00000000E+00  0.00000000E+00  0.00000000E+00
  0.00000000E+00  0.00000000E+00  0.00000000E+00
  0.00000000E+00  0.00000000E+00  0.00000000E+00
  0.00000000E+00  0.00000000E+00  0.00000000E+00
  0.00000000E+00  0.00000000E+00  0.00000000E+00
  0.00000000E+00  0.00000000E+00  0.00000000E+00
  0.00000000E+00  0.00000000E+00  0.00000000E+00
  0.00000000E+00  0.00000000E+00  0.00000000E+00
  0.00000000E+00  0.00000000E+00  0.00000000E+00
  0.00000000E+00  0.00000000E+00  0.00000000E+00
  0.00000000E+00  0.00000000E+00  0.00000000E+00
  0.00000000E+00  0.00000000E+00  0.00000000E+00
  0.00000000E+00  0.00000000E+00  0.00000000E+00
  0.00000000E+00  0.00000000E+00  0.00000000E+00
  0.00000000E+00  0.00000000E+00  0.00000000E+00
  0.00000000E+00  0.00000000E+00  0.00000000E+00
  0.00000000E+00  0.00000000E+00  0.00000000E+00
  0.00000000E+00  0.00000000E+00  0.00000000E+00
  0.00000000E+00  0.00000000E+00  0.00000000E+00
  0.00000000E+00  0.00000000E+00  0.00000000E+00
  0.00000000E+00  0.00000000E+00  0.00000000E+00
  0.00000000E+00  0.00000000E+00  0.00000000E+00
  0.00000000E+00  0.00000000E+00  0.00000000E+00
  0.00000000E+00  0.00000000E+00  0.00000000E+00
  0.00000000E+00  0.00000000E+00  0.00000000E+00
  0.00000000E+00  0.00000000E+00  0.00000000E+00
  0.00000000E+00  0.00000000E+00  0.00000000E+00
  0.00000000E+00  0.00000000E+00  0.00000000E+00
  0.00000000E+00  0.00000000E+00  0.00000000E+00
  0.00000000E+00  0.00000000E+00  0.00000000E+00
  0.00000000E+00  0.00000000E+00  0.00000000E+00
  0.00000000E+00  0.00000000E+00  0.00000000E+00
  0.00000000E+00  0.00000000E+00  0.00000000E+00
  0.00000000E+00  0.00000000E+00  0.00000000E+00
  0.00000000E+00  0.00000000E+00  0.00000000E+00
  0.00000000E+00  0.00000000E+00  0.00000000E+00
  0.00000000E+00  0.00000000E+00  0.00000000E+00
  0.00000000E+00  0.00000000E+00  0.00000000E+00
  0.00000000E+00  0.00000000E+00  0.00000000E+00
  0.00000000E+00  0.00000000E+00  0.00000000E+00
  0.00000000E+00  0.00000000E+00  0.00000000E+00
  0.00000000E+00  0.00000000E+00  0.00000000E+00
  0.00000000E+00  0.00000000E+00  0.00000000E+00
  0.00000000E+00  0.00000000E+00  0.00000000E+00
  0.00000000E+00  0.00000000E+00  0.00000000E+00
  0.00000000E+00  0.00000000E+00  0.00000000E+00
  0.00000000E+00  0.00000000E+00  0.00000000E+00
  0.00000000E+00  0.00000000E+00  0.00000000E+00
  0.00000000E+00  0.00000000E+00  0.00000000E+00
  0.00000000E+00  0.00000000E+00  0.00000000E+00
  0.00000000E+00  0.00000000E+00  0.00000000E+00
  0.00000000E+00  0.00000000E+00  0.00000000E+00
  0.00000000E+00  0.00000000E+00  0.00000000E+00
  0.00000000E+00  0.00000000E+00  0.00000000E+00
  0.00000000E+00  0.00000000E+00  0.00000000E+00
  0.00000000E+00  0.00000000E+00  0.00000000E+00
  0.00000000E+00  0.00000000E+00  0.00000000E+00
  0.00000000E+00  0.00000000E+00  0.00000000E+00
  0.00000000E+00  0.00000000E+00  0.00000000E+00
  0.00000000E+00  0.00000000E+00  0.00000000E+00
  0.00000000E+00  0.00000000E+00  0.00000000E+00
  0.00000000E+00  0.00000000E+00  0.00000000E+00
  0.00000000E+00  0.00000000E+00  0.00000000E+00
  0.00000000E+00  0.00000000E+00  0.00000000E+00
  0.00000000E+00  0.00000000E+00  0.00000000E+00
  0.00000000E+00  0.00000000E+00  0.00000000E+00
  0.00000000E+00  0.00000000E+00  0.00000000E+00
  0.00000000E+00  0.00000000E+00  0.00000000E+00
  0.00000000E+00  0.00000000E+00  0.00000000E+00
  0.00000000E+00  0.00000000E+00  0.00000000E+00
  0.00000000E+00  0.00000000E+00  0.00000000E+00
  0.00000000E+00  0.00000000E+00  0.00000000E+00
  0.00000000E+00  0.00000000E+00  0.00000000E+00
  0.00000000E+00  0.00000000E+00  0.00000000E+00
  0.00000000E+00  0.00000000E+00  0.00000000E+00
  0.00000000E+00  0.00000000E+00  0.00000000E+00
  0.00000000E+00  0.00000000E+00  0.00000000E+00
  0.00000000E+00  0.00000000E+00  0.00000000E+00
  0.00000000E+00  0.00000000E+00  0.00000000E+00
  0.00000000E+00  0.00000000E+00  0.00000000E+00
  0.00000000E+00  0.00000000E+00  0.00000000E+00
  0.00000000E+00  0.00000000E+00  0.00000000E+00
  0.00000000E+00  0.00000000E+00  0.00000000E+00
  0.00000000E+00  0.00000000E+00  0.00000000E+00
  0.00000000E+00  0.00000000E+00  0.00000000E+00
  0.00000000E+00  0.00000000E+00  0.00000000E+00
  0.00000000E+00  0.00000000E+00  0.00000000E+00
  0.00000000E+00  0.00000000E+00  0.00000000E+00
  0.00000000E+00  0.00000000E+00  0.00000000E+00
  0.00000000E+00  0.00000000E+00  0.00000000E+00
  0.00000000E+00  0.00000000E+00  0.00000000E+00
  0.00000000E+00  0.00000000E+00  0.00000000E+00
  0.00000000E+00  0.00000000E+00  0.00000000E+00
  0.00000000E+00  0.00000000E+00  0.00000000E+00
  0.00000000E+00  0.00000000E+00  0.00000000E+00
  0.00000000E+00  0.00000000E+00  0.00000000E+00
  0.00000000E+00  0.00000000E+00  0.00000000E+00
  0.00000000E+00  0.00000000E+00  0.00000000E+00
