H1 Ir32 O72                             
   1.00000000000000     
     9.0898780000000006    0.0000000000000000    0.0000000000000000
     0.0000000000000000   11.1045669999999994   -0.0793000000000000
     0.0000000000000000    0.0000000000000000   31.3300599999999996
   H    Ir   O 
     1    32    72
Direct
  0.2529558554639273  0.8577566830107762  0.7012184911011765
  0.2628850715332141  0.3287485841928142  0.3750563750170429
  0.2629227152201237  0.8288597480348990  0.3750664472598078
  0.7628750114836625  0.3287729525128877  0.3750621742148275
  0.7629645821714862  0.8288299715052859  0.3750613458613969
  0.9874763842125523  0.0792018712383940  0.3756451660441439
  0.9865872900643115  0.5792761661991140  0.3753338410995665
  0.4874425053786627  0.0792074158849171  0.3756570261988192
  0.4865500566418992  0.5796094592988911  0.3749832312841374
  0.2473518798913422  0.0015264740728009  0.4574435522094782
  0.2476136215757159  0.5021124885969167  0.4571108585902917
  0.7476591627176439  0.0018718996623023  0.4573112118309472
  0.7470568841859183  0.5014747200377321  0.4574859790576798
  0.0015339653681951  0.2528729579017764  0.4577576764687029
  0.0015351945526695  0.7528259899341762  0.4577393424671489
  0.5014793470108652  0.2528468442739881  0.4577607792531985
  0.5016200330027994  0.7527701142515228  0.4576697674016498
  0.2505615499158324  0.1669160745038024  0.5409611350555172
  0.2507744083906122  0.6668596256223980  0.5408780633636323
  0.7506080522201602  0.1670362205378749  0.5409315550522882
  0.7505565131069061  0.6668913180296860  0.5409531731679131
  0.0008288558500188  0.4166322184434992  0.5422667521594396
  0.0002419899519404  0.9164412123522589  0.5423379277404381
  0.5003732594150940  0.4168184150692734  0.5422529437258652
  0.5018547690881170  0.9167639821957185  0.5421259203863670
  0.2476837029045401  0.3338981741764155  0.6276440140505212
  0.2440593247068292  0.8357831812364228  0.6256552265841762
  0.7476781813665848  0.3336166424547589  0.6276750828926939
  0.7479756901808333  0.8341364330402090  0.6275574911026879
  0.0055399004941844  0.0850369552386062  0.6270020824101284
  0.0054193088462369  0.5850367088787782  0.6270006295893044
  0.5056899470130100  0.0848114680562567  0.6270285280396591
  0.5056353134531167  0.5849181231065569  0.6270585513603792
  0.3464127156231320  0.1881259559897202  0.3510493815895303
  0.3461479647644472  0.6882088494482597  0.3509803153473618
  0.8464110903013090  0.1881289124713212  0.3510495235888304
  0.8462711200202641  0.6881732919154382  0.3510167985837634
  0.0955651298116028  0.2318417671654546  0.3993348001041009
  0.0955482887052659  0.7318355472532345  0.3993297998941341
  0.5955614818726751  0.2318408305150111  0.3993358557876883
  0.5955667465042411  0.7318439741783047  0.3993222492170956
  0.1527816327862267  0.4817959897734568  0.3992985602294579
  0.1528732124414051  0.9817637049047391  0.3993155976764122
  0.6527819468394189  0.4817967373758270  0.3993023952979351
  0.6528727034112496  0.9817690521798274  0.3993127403147520
  0.4021071246451062  0.4368201766910170  0.3503025212429993
  0.4032689670191394  0.9381962346877857  0.3510076291396863
  0.9021543081452569  0.4368193172731376  0.3503202766263360
  0.9032699671074598  0.9382022333001616  0.3510079511714888
  0.3424947185639598  0.3531631051750708  0.4339873182418681
  0.3425527561753005  0.8531597172113771  0.4339902660319337
  0.8425055896151036  0.3531598657232510  0.4339896729304529
  0.8425096794870217  0.8531629419371410  0.4339902868883076
  0.0957833569903564  0.4005016583974086  0.4845123717779434
  0.0957405862173876  0.9004811867135005  0.4845191865800265
  0.5957364833818708  0.4004864196453150  0.4845213409841694
  0.5957695757014747  0.9004725944944952  0.4845008210939586
  0.1529535162255274  0.1489669625686558  0.4839934438849525
  0.1529139459325506  0.6489919413779289  0.4839808756952045
  0.6529450836694347  0.1489755313634474  0.4839908095289008
  0.6529080910283568  0.6489556154633459  0.4839957655072011
  0.4044922546913121  0.1016700863696045  0.4339934338388781
  0.4041258338135476  0.6019905078033404  0.4333977535815621
  0.9045153728193195  0.1016798717971992  0.4339899700283261
  0.9044852090400822  0.6016510976538210  0.4339870243199758
  0.3466856295666449  0.0179537924241143  0.5159572009147356
  0.3458042383880643  0.5183170225793290  0.5155314193231494
  0.8466652236241001  0.0179633347896556  0.5159561082601836
  0.8466537100144442  0.5179480620927034  0.5159569427981081
  0.0959685643322575  0.0658476046557393  0.5666737093323312
  0.0959774856318340  0.5658540506652840  0.5666710592097745
  0.5960161973086241  0.0658934025587476  0.5666677856811129
  0.5959755424866321  0.5658275519453517  0.5666782893834917
  0.1569264269097708  0.3136124538915088  0.5660476189197017
  0.1568770301075235  0.8136333204747954  0.5660212464248874
  0.6568649447104100  0.3136173386154038  0.5660487031036290
  0.6570323810756301  0.8136136881534543  0.5660421016677384
  0.4045102324260015  0.2679478615910414  0.5159724345791384
  0.4045564115348182  0.7679507235736691  0.5159642678918318
  0.9045205167391898  0.2679527707668148  0.5159702230092232
  0.9045080177610403  0.7679225851369413  0.5159729364767857
  0.3449374557183418  0.1867848048887703  0.6001338960643592
  0.3448708357604471  0.6869194392060131  0.5999311972999080
  0.8449083082646092  0.1868085586871214  0.6001192587663629
  0.8449250178538305  0.6868110950489471  0.6001231826375723
  0.0959491916084107  0.2322331926846613  0.6492380665762145
  0.0973143020952071  0.7323426560777175  0.6487482123094647
  0.5959110119643930  0.2322029298756105  0.6492450642961685
  0.5972175402599750  0.7322946892909239  0.6487311381729504
  0.1501464712923597  0.4832713969878720  0.6477437525443482
  0.1532143085674752  0.9837819706133591  0.6470474123455181
  0.6500568728715053  0.4809421632839304  0.6480574830853238
  0.6501724220268037  0.9832807321169550  0.6477470132961838
  0.4023278922681373  0.4366852794282566  0.6001126833753698
  0.4070524556578182  0.9371730963480315  0.6000600251793786
  0.9023410797251733  0.4366506800235733  0.6001143909835318
  0.9023296999939788  0.9366912610638722  0.6001227703249323
  0.3430788385908203  0.3490261747707092  0.6784584656570668
  0.8432530761546521  0.3489799809535067  0.6784526925266348
  0.8432537418391038  0.8489980021031472  0.6784514669895265
  0.9068577396187151  0.0934452196816704  0.6761109717655248
  0.9068387067757949  0.5934810580142773  0.6761088924326222
  0.4068305102175029  0.0934673026871392  0.6761089422523314
  0.4068414305657631  0.5934556296479232  0.6761038997216384
  0.3357157569624127  0.8453513502321313  0.6820829956549753
 
  0.00000000E+00  0.00000000E+00  0.00000000E+00
  0.00000000E+00  0.00000000E+00  0.00000000E+00
  0.00000000E+00  0.00000000E+00  0.00000000E+00
  0.00000000E+00  0.00000000E+00  0.00000000E+00
  0.00000000E+00  0.00000000E+00  0.00000000E+00
  0.00000000E+00  0.00000000E+00  0.00000000E+00
  0.00000000E+00  0.00000000E+00  0.00000000E+00
  0.00000000E+00  0.00000000E+00  0.00000000E+00
  0.00000000E+00  0.00000000E+00  0.00000000E+00
  0.00000000E+00  0.00000000E+00  0.00000000E+00
  0.00000000E+00  0.00000000E+00  0.00000000E+00
  0.00000000E+00  0.00000000E+00  0.00000000E+00
  0.00000000E+00  0.00000000E+00  0.00000000E+00
  0.00000000E+00  0.00000000E+00  0.00000000E+00
  0.00000000E+00  0.00000000E+00  0.00000000E+00
  0.00000000E+00  0.00000000E+00  0.00000000E+00
  0.00000000E+00  0.00000000E+00  0.00000000E+00
  0.00000000E+00  0.00000000E+00  0.00000000E+00
  0.00000000E+00  0.00000000E+00  0.00000000E+00
  0.00000000E+00  0.00000000E+00  0.00000000E+00
  0.00000000E+00  0.00000000E+00  0.00000000E+00
  0.00000000E+00  0.00000000E+00  0.00000000E+00
  0.00000000E+00  0.00000000E+00  0.00000000E+00
  0.00000000E+00  0.00000000E+00  0.00000000E+00
  0.00000000E+00  0.00000000E+00  0.00000000E+00
  0.00000000E+00  0.00000000E+00  0.00000000E+00
  0.00000000E+00  0.00000000E+00  0.00000000E+00
  0.00000000E+00  0.00000000E+00  0.00000000E+00
  0.00000000E+00  0.00000000E+00  0.00000000E+00
  0.00000000E+00  0.00000000E+00  0.00000000E+00
  0.00000000E+00  0.00000000E+00  0.00000000E+00
  0.00000000E+00  0.00000000E+00  0.00000000E+00
  0.00000000E+00  0.00000000E+00  0.00000000E+00
  0.00000000E+00  0.00000000E+00  0.00000000E+00
  0.00000000E+00  0.00000000E+00  0.00000000E+00
  0.00000000E+00  0.00000000E+00  0.00000000E+00
  0.00000000E+00  0.00000000E+00  0.00000000E+00
  0.00000000E+00  0.00000000E+00  0.00000000E+00
  0.00000000E+00  0.00000000E+00  0.00000000E+00
  0.00000000E+00  0.00000000E+00  0.00000000E+00
  0.00000000E+00  0.00000000E+00  0.00000000E+00
  0.00000000E+00  0.00000000E+00  0.00000000E+00
  0.00000000E+00  0.00000000E+00  0.00000000E+00
  0.00000000E+00  0.00000000E+00  0.00000000E+00
  0.00000000E+00  0.00000000E+00  0.00000000E+00
  0.00000000E+00  0.00000000E+00  0.00000000E+00
  0.00000000E+00  0.00000000E+00  0.00000000E+00
  0.00000000E+00  0.00000000E+00  0.00000000E+00
  0.00000000E+00  0.00000000E+00  0.00000000E+00
  0.00000000E+00  0.00000000E+00  0.00000000E+00
  0.00000000E+00  0.00000000E+00  0.00000000E+00
  0.00000000E+00  0.00000000E+00  0.00000000E+00
  0.00000000E+00  0.00000000E+00  0.00000000E+00
  0.00000000E+00  0.00000000E+00  0.00000000E+00
  0.00000000E+00  0.00000000E+00  0.00000000E+00
  0.00000000E+00  0.00000000E+00  0.00000000E+00
  0.00000000E+00  0.00000000E+00  0.00000000E+00
  0.00000000E+00  0.00000000E+00  0.00000000E+00
  0.00000000E+00  0.00000000E+00  0.00000000E+00
  0.00000000E+00  0.00000000E+00  0.00000000E+00
  0.00000000E+00  0.00000000E+00  0.00000000E+00
  0.00000000E+00  0.00000000E+00  0.00000000E+00
  0.00000000E+00  0.00000000E+00  0.00000000E+00
  0.00000000E+00  0.00000000E+00  0.00000000E+00
  0.00000000E+00  0.00000000E+00  0.00000000E+00
  0.00000000E+00  0.00000000E+00  0.00000000E+00
  0.00000000E+00  0.00000000E+00  0.00000000E+00
  0.00000000E+00  0.00000000E+00  0.00000000E+00
  0.00000000E+00  0.00000000E+00  0.00000000E+00
  0.00000000E+00  0.00000000E+00  0.00000000E+00
  0.00000000E+00  0.00000000E+00  0.00000000E+00
  0.00000000E+00  0.00000000E+00  0.00000000E+00
  0.00000000E+00  0.00000000E+00  0.00000000E+00
  0.00000000E+00  0.00000000E+00  0.00000000E+00
  0.00000000E+00  0.00000000E+00  0.00000000E+00
  0.00000000E+00  0.00000000E+00  0.00000000E+00
  0.00000000E+00  0.00000000E+00  0.00000000E+00
  0.00000000E+00  0.00000000E+00  0.00000000E+00
  0.00000000E+00  0.00000000E+00  0.00000000E+00
  0.00000000E+00  0.00000000E+00  0.00000000E+00
  0.00000000E+00  0.00000000E+00  0.00000000E+00
  0.00000000E+00  0.00000000E+00  0.00000000E+00
  0.00000000E+00  0.00000000E+00  0.00000000E+00
  0.00000000E+00  0.00000000E+00  0.00000000E+00
  0.00000000E+00  0.00000000E+00  0.00000000E+00
  0.00000000E+00  0.00000000E+00  0.00000000E+00
  0.00000000E+00  0.00000000E+00  0.00000000E+00
  0.00000000E+00  0.00000000E+00  0.00000000E+00
  0.00000000E+00  0.00000000E+00  0.00000000E+00
  0.00000000E+00  0.00000000E+00  0.00000000E+00
  0.00000000E+00  0.00000000E+00  0.00000000E+00
  0.00000000E+00  0.00000000E+00  0.00000000E+00
  0.00000000E+00  0.00000000E+00  0.00000000E+00
  0.00000000E+00  0.00000000E+00  0.00000000E+00
  0.00000000E+00  0.00000000E+00  0.00000000E+00
  0.00000000E+00  0.00000000E+00  0.00000000E+00
  0.00000000E+00  0.00000000E+00  0.00000000E+00
  0.00000000E+00  0.00000000E+00  0.00000000E+00
  0.00000000E+00  0.00000000E+00  0.00000000E+00
  0.00000000E+00  0.00000000E+00  0.00000000E+00
  0.00000000E+00  0.00000000E+00  0.00000000E+00
  0.00000000E+00  0.00000000E+00  0.00000000E+00
  0.00000000E+00  0.00000000E+00  0.00000000E+00
  0.00000000E+00  0.00000000E+00  0.00000000E+00
  0.00000000E+00  0.00000000E+00  0.00000000E+00
