Ba10 Sr10 Co24 H1 O70                   
    1.000000000000000     
    11.1057150000000000    0.0000000000000000    0.0000000000000000
    -0.0047930000000000    5.5528550000000001    0.0000000000000000
     0.0000000000000000    0.0000000000000000   87.2902260000000041
   Ba   Sr   Co   H    O 
    10    10    24     1    70
Direct
  0.9990227742092944  0.9994388938928901  0.5550379405238154
  0.4998881639487787  0.9989190017507001  0.5550494314015507
  0.2498166859477343  0.5012778731577411  0.6010387628787548
  0.7528981358248117  0.5003640369967400  0.6008420861552566
 -0.0005838027013596  0.9985627698944883  0.4636753358908144
  0.5004236027470261  0.9985362201181592  0.4636773640630429
  0.2494423519050566  0.4951506689106242  0.5094304085659358
  0.7491871937464889  0.4962760349345333  0.5094228398469861
  0.2493573415237447  0.5009820922512260  0.4168235338346132
  0.7495217506843156  0.4986699423048728  0.4167896802621141
  0.2499213055110009  0.4909971410886331  0.5552475661026677
  0.7498196017137680  0.4922414766630659  0.5552299883979157
  0.4997479001007782  0.0062561411128610  0.6009582462383577
  0.0003147843026527  0.0061542368297480  0.6009398074403102
  0.2526089546133719  0.4994398140951274  0.4633123441438763
  0.7499697235710300  0.4913152512937572  0.4633963566279879
  0.4992028153212534  0.9927296323875979  0.5088125090904327
  0.9992658389845581  0.9928153415472563  0.5088030167144056
  0.4997638347639389  0.0001618596002687  0.4175421825092553
  0.0000305568719717  0.0002165337288753  0.4175420709206588
  0.2496371544072313  0.0098747034404498  0.6222160806822770
  0.7475096451822999  0.0095374700649082  0.6217212104766262
  0.0011110005913072  0.5095965340937637  0.6217523963524072
  0.5018751237215247  0.5116615589408922  0.6218618678323551
  0.9996431192615809  0.5085269293960700  0.5779572920613939
  0.4995242982670806  0.5086940905759912  0.5780194010734907
  0.2499196106890577  0.0005720141799914  0.5773735035469839
  0.7497995206105617  0.0008851212269632  0.5773617118994934
  0.2506221653200454  0.9927590353390270  0.5321391728520142
  0.7500346238050766  0.9986465820650490  0.5320445819454979
  0.9996387318527097  0.4988870013818985  0.5320148621398091
  0.4996901742332732  0.4987962728994964  0.5320177664503351
  0.9991359462626683  0.5062355116405358  0.4863578022243566
  0.4990829810647094  0.5061236066613437  0.4863769839174300
  0.2498651586201172  0.9999351370240682  0.4866884352033859
  0.7498898966940507  0.9995400300512497  0.4866747905833507
  0.2499365552513016  0.9992019196345976  0.4413252117027363
  0.7510958950758625  0.9911420703254813  0.4407718652320498
 -0.0002499398191321  0.4985734155152713  0.4413226853338973
  0.4998081110719013  0.4982994324302439  0.4413064605090041
  0.9980647923470928  0.5107037676139347  0.3953434628557620
  0.4980663770039802  0.5106737055700227  0.3953375654795327
  0.2517127100448144  0.0108453021222601  0.3953044563569847
  0.7516399232138965  0.0105210774089806  0.3952537333811171
  0.0915376007953013  0.8869655078051547  0.6447645494706967
 -0.0000044218800211  0.4999035126085933  0.6004334060119529
  0.4999889791181717  0.4998868028419186  0.6004346791738630
  0.9953018268654026  0.4998894968458838  0.5531792125612196
  0.5046940973085587  0.5000118747569576  0.5531790153257701
  0.1306107084147161  0.7919426673742763  0.6227495021515338
  0.6309959930868503  0.7876474378009072  0.6228983634252104
  0.3811088799076786  0.7124617159420152  0.6229026198486787
  0.8810793321678130  0.7125128952952970  0.6229058951280522
  0.3690438550722138  0.2124510628553271  0.6228931417342174
  0.8691289111140509  0.2080056975593743  0.6227493041253828
  0.1188386481495121  0.2876016210360646  0.6229015625680494
  0.6189251042901185  0.2875064395307774  0.6229025650695604
  0.2499926226356326 -0.0000701345247401  0.5542729451137726
  0.7499949227339231 -0.0000603863279505  0.5542751421848873
  0.2500029841885085 -0.0000250044945929  0.5995770566709736
  0.7499951579546794 -0.0000644359810355  0.5995621271228573
  0.3771861422368829  0.2802153592176035  0.5779813455537429
  0.8771863063784232  0.2801834714414052  0.5779843521745079
  0.1262641104859819  0.2247746108707609  0.5781123209260123
  0.6262681602308108  0.2247554145263794  0.5781143984123351
  0.1228347152454855  0.7198869792280507  0.5779757689162691
  0.6228444114776783  0.7199012290979885  0.5779846789860843
  0.3737452995709203  0.7751314953107710  0.5781132358211150
  0.8737424061069221  0.7751549676229105  0.5781148584458150
  0.9953092264433333  0.4999604711110991  0.5078619442310393
  0.4953116152241709  0.4999608853671239  0.5078623278528767
 -0.0000078512748711  0.4999307439723406  0.4644864522582897
  0.4999936589152420  0.4999294607968511  0.4644856102628517
  0.1379941682771201  0.7747378679263797  0.5327965989176940
  0.6380510539179581  0.7748679920989463  0.5327926660351715
  0.3880307673385914  0.7249639718507960  0.5327901454608034
  0.8880374343450130  0.7250069635966726  0.5327857455219990
  0.3619072642897462  0.2249538001360201  0.5327926129741765
  0.8619218807787332  0.2250190227028644  0.5327900864196016
  0.1119402338012618  0.2749755365094135  0.5327882278208333
  0.6119555062021709  0.2749173541268459  0.5327843329825671
  0.2500014924657539  0.9875196682549855  0.4635257610636307
  0.7499933369436269  0.9875229137723524  0.4635237404357917
  0.2499884872565939  0.9875683477531360  0.5088447185002817
  0.7499901455835222  0.9875780547100121  0.5088454670549764
  0.3927943611047763  0.2624533151758212  0.4869540655159371
  0.8927941908412665  0.2624561448441731  0.4869542474127910
  0.1428555010828763  0.2373858094313142  0.4864745333107429
  0.6428536287501473  0.2373861211347116  0.4864743423966291
  0.1072144625156248  0.7375547515469977  0.4869564345555090
  0.6072126034781156  0.7375510247612496  0.4869566101649519
  0.3571804708360480  0.7625002930998233  0.4864738421610840
  0.8571805862849222  0.7624982794478293  0.4864742297887202
 -0.0000021331124263  0.4999461998760736  0.4191618489662906
  0.4999968103945681  0.4999456836562342  0.4191622589444426
  0.1380076417411526  0.7749333957033501  0.4406239583366105
  0.6379709525067484  0.7748024716515725  0.4406222054580330
  0.3857812229136829  0.7249659935613459  0.4406336497508072
  0.8857438086052861  0.7249624663545335  0.4406326071354093
  0.3619586908852253  0.2249789635183777  0.4406285788162600
  0.8619263924662427  0.2248622804513130  0.4406267221082606
  0.1142418040135978  0.2749383671033466  0.4406358998958406
  0.6142114755657516  0.2749514186767118  0.4406342398959122
  0.2499857513213629 -0.0000527491883942  0.4167643383304672
  0.7499856538840001 -0.0000898983208487  0.4167679505920626
  0.3881766401592252  0.2751098141408795  0.3937617595731003
  0.8881765686884336  0.2751062481942892  0.3937615215332161
  0.1380828842709841  0.2248172345701548  0.3937510009375950
  0.6380660559991905  0.2248132035749291  0.3937506489425339
  0.1118249863125018  0.7249296332617206  0.3937590833467359
  0.6118270482313788  0.7249352541353532  0.3937589733217094
  0.3619059266538986  0.7752100995925045  0.3937523840993362
  0.8619072824440226  0.7752035892002245  0.3937522442831319
  0.2502013231113137  0.0124918250215331  0.6447689035604440
  0.1545731455226794  0.9374551607352904  0.6525866604492461
 
  0.00000000E+00  0.00000000E+00  0.00000000E+00
  0.00000000E+00  0.00000000E+00  0.00000000E+00
  0.00000000E+00  0.00000000E+00  0.00000000E+00
  0.00000000E+00  0.00000000E+00  0.00000000E+00
  0.00000000E+00  0.00000000E+00  0.00000000E+00
  0.00000000E+00  0.00000000E+00  0.00000000E+00
  0.00000000E+00  0.00000000E+00  0.00000000E+00
  0.00000000E+00  0.00000000E+00  0.00000000E+00
  0.00000000E+00  0.00000000E+00  0.00000000E+00
  0.00000000E+00  0.00000000E+00  0.00000000E+00
  0.00000000E+00  0.00000000E+00  0.00000000E+00
  0.00000000E+00  0.00000000E+00  0.00000000E+00
  0.00000000E+00  0.00000000E+00  0.00000000E+00
  0.00000000E+00  0.00000000E+00  0.00000000E+00
  0.00000000E+00  0.00000000E+00  0.00000000E+00
  0.00000000E+00  0.00000000E+00  0.00000000E+00
  0.00000000E+00  0.00000000E+00  0.00000000E+00
  0.00000000E+00  0.00000000E+00  0.00000000E+00
  0.00000000E+00  0.00000000E+00  0.00000000E+00
  0.00000000E+00  0.00000000E+00  0.00000000E+00
  0.00000000E+00  0.00000000E+00  0.00000000E+00
  0.00000000E+00  0.00000000E+00  0.00000000E+00
  0.00000000E+00  0.00000000E+00  0.00000000E+00
  0.00000000E+00  0.00000000E+00  0.00000000E+00
  0.00000000E+00  0.00000000E+00  0.00000000E+00
  0.00000000E+00  0.00000000E+00  0.00000000E+00
  0.00000000E+00  0.00000000E+00  0.00000000E+00
  0.00000000E+00  0.00000000E+00  0.00000000E+00
  0.00000000E+00  0.00000000E+00  0.00000000E+00
  0.00000000E+00  0.00000000E+00  0.00000000E+00
  0.00000000E+00  0.00000000E+00  0.00000000E+00
  0.00000000E+00  0.00000000E+00  0.00000000E+00
  0.00000000E+00  0.00000000E+00  0.00000000E+00
  0.00000000E+00  0.00000000E+00  0.00000000E+00
  0.00000000E+00  0.00000000E+00  0.00000000E+00
  0.00000000E+00  0.00000000E+00  0.00000000E+00
  0.00000000E+00  0.00000000E+00  0.00000000E+00
  0.00000000E+00  0.00000000E+00  0.00000000E+00
  0.00000000E+00  0.00000000E+00  0.00000000E+00
  0.00000000E+00  0.00000000E+00  0.00000000E+00
  0.00000000E+00  0.00000000E+00  0.00000000E+00
  0.00000000E+00  0.00000000E+00  0.00000000E+00
  0.00000000E+00  0.00000000E+00  0.00000000E+00
  0.00000000E+00  0.00000000E+00  0.00000000E+00
  0.00000000E+00  0.00000000E+00  0.00000000E+00
  0.00000000E+00  0.00000000E+00  0.00000000E+00
  0.00000000E+00  0.00000000E+00  0.00000000E+00
  0.00000000E+00  0.00000000E+00  0.00000000E+00
  0.00000000E+00  0.00000000E+00  0.00000000E+00
  0.00000000E+00  0.00000000E+00  0.00000000E+00
  0.00000000E+00  0.00000000E+00  0.00000000E+00
  0.00000000E+00  0.00000000E+00  0.00000000E+00
  0.00000000E+00  0.00000000E+00  0.00000000E+00
  0.00000000E+00  0.00000000E+00  0.00000000E+00
  0.00000000E+00  0.00000000E+00  0.00000000E+00
  0.00000000E+00  0.00000000E+00  0.00000000E+00
  0.00000000E+00  0.00000000E+00  0.00000000E+00
  0.00000000E+00  0.00000000E+00  0.00000000E+00
  0.00000000E+00  0.00000000E+00  0.00000000E+00
  0.00000000E+00  0.00000000E+00  0.00000000E+00
  0.00000000E+00  0.00000000E+00  0.00000000E+00
  0.00000000E+00  0.00000000E+00  0.00000000E+00
  0.00000000E+00  0.00000000E+00  0.00000000E+00
  0.00000000E+00  0.00000000E+00  0.00000000E+00
  0.00000000E+00  0.00000000E+00  0.00000000E+00
  0.00000000E+00  0.00000000E+00  0.00000000E+00
  0.00000000E+00  0.00000000E+00  0.00000000E+00
  0.00000000E+00  0.00000000E+00  0.00000000E+00
  0.00000000E+00  0.00000000E+00  0.00000000E+00
  0.00000000E+00  0.00000000E+00  0.00000000E+00
  0.00000000E+00  0.00000000E+00  0.00000000E+00
  0.00000000E+00  0.00000000E+00  0.00000000E+00
  0.00000000E+00  0.00000000E+00  0.00000000E+00
  0.00000000E+00  0.00000000E+00  0.00000000E+00
  0.00000000E+00  0.00000000E+00  0.00000000E+00
  0.00000000E+00  0.00000000E+00  0.00000000E+00
  0.00000000E+00  0.00000000E+00  0.00000000E+00
  0.00000000E+00  0.00000000E+00  0.00000000E+00
  0.00000000E+00  0.00000000E+00  0.00000000E+00
  0.00000000E+00  0.00000000E+00  0.00000000E+00
  0.00000000E+00  0.00000000E+00  0.00000000E+00
  0.00000000E+00  0.00000000E+00  0.00000000E+00
  0.00000000E+00  0.00000000E+00  0.00000000E+00
  0.00000000E+00  0.00000000E+00  0.00000000E+00
  0.00000000E+00  0.00000000E+00  0.00000000E+00
  0.00000000E+00  0.00000000E+00  0.00000000E+00
  0.00000000E+00  0.00000000E+00  0.00000000E+00
  0.00000000E+00  0.00000000E+00  0.00000000E+00
  0.00000000E+00  0.00000000E+00  0.00000000E+00
  0.00000000E+00  0.00000000E+00  0.00000000E+00
  0.00000000E+00  0.00000000E+00  0.00000000E+00
  0.00000000E+00  0.00000000E+00  0.00000000E+00
  0.00000000E+00  0.00000000E+00  0.00000000E+00
  0.00000000E+00  0.00000000E+00  0.00000000E+00
  0.00000000E+00  0.00000000E+00  0.00000000E+00
  0.00000000E+00  0.00000000E+00  0.00000000E+00
  0.00000000E+00  0.00000000E+00  0.00000000E+00
  0.00000000E+00  0.00000000E+00  0.00000000E+00
  0.00000000E+00  0.00000000E+00  0.00000000E+00
  0.00000000E+00  0.00000000E+00  0.00000000E+00
  0.00000000E+00  0.00000000E+00  0.00000000E+00
  0.00000000E+00  0.00000000E+00  0.00000000E+00
  0.00000000E+00  0.00000000E+00  0.00000000E+00
  0.00000000E+00  0.00000000E+00  0.00000000E+00
  0.00000000E+00  0.00000000E+00  0.00000000E+00
  0.00000000E+00  0.00000000E+00  0.00000000E+00
  0.00000000E+00  0.00000000E+00  0.00000000E+00
  0.00000000E+00  0.00000000E+00  0.00000000E+00
  0.00000000E+00  0.00000000E+00  0.00000000E+00
  0.00000000E+00  0.00000000E+00  0.00000000E+00
  0.00000000E+00  0.00000000E+00  0.00000000E+00
  0.00000000E+00  0.00000000E+00  0.00000000E+00
  0.00000000E+00  0.00000000E+00  0.00000000E+00
  0.00000000E+00  0.00000000E+00  0.00000000E+00
  0.00000000E+00  0.00000000E+00  0.00000000E+00
