Ir32 O64
1.0
6.379014 0.000000 0.000000
0.000000 12.855029 -0.000000
0.000000 0.000000 38.565086
Ir O
32 64
direct
0.250000 0.125000 0.375000 Ir4+
0.250000 0.625000 0.375000 Ir4+
0.750000 0.125000 0.375000 Ir4+
0.750000 0.625000 0.375000 Ir4+
0.000000 0.375000 0.375000 Ir4+
1.000000 0.875000 0.375000 Ir4+
0.500000 0.375000 0.375000 Ir4+
0.500000 0.875000 0.375000 Ir4+
0.250000 0.375000 0.458333 Ir4+
0.250000 0.875000 0.458333 Ir4+
0.750000 0.375000 0.458333 Ir4+
0.750000 0.875000 0.458333 Ir4+
1.000000 0.125000 0.458333 Ir4+
0.000000 0.625000 0.458333 Ir4+
0.500000 0.125000 0.458333 Ir4+
0.500000 0.625000 0.458333 Ir4+
0.250000 0.125000 0.541667 Ir4+
0.250000 0.625000 0.541667 Ir4+
0.750000 0.125000 0.541667 Ir4+
0.750000 0.625000 0.541667 Ir4+
0.000000 0.375000 0.541667 Ir4+
1.000000 0.875000 0.541667 Ir4+
0.500000 0.375000 0.541667 Ir4+
0.500000 0.875000 0.541667 Ir4+
0.250000 0.375000 0.625000 Ir4+
0.250000 0.875000 0.625000 Ir4+
0.750000 0.375000 0.625000 Ir4+
0.750000 0.875000 0.625000 Ir4+
1.000000 0.125000 0.625000 Ir4+
1.000000 0.625000 0.625000 Ir4+
0.500000 0.125000 0.625000 Ir4+
0.500000 0.625000 0.625000 Ir4+
0.000000 0.125000 0.343059 O2-
1.000000 0.625000 0.343059 O2-
0.500000 0.125000 0.343059 O2-
0.500000 0.625000 0.343059 O2-
0.250000 0.279177 0.375000 O2-
0.250000 0.779177 0.375000 O2-
0.750000 0.279177 0.375000 O2-
0.750000 0.779177 0.375000 O2-
1.000000 0.125000 0.406941 O2-
1.000000 0.625000 0.406941 O2-
0.500000 0.125000 0.406941 O2-
0.500000 0.625000 0.406941 O2-
0.250000 0.470823 0.375000 O2-
0.250000 0.970823 0.375000 O2-
0.750000 0.470823 0.375000 O2-
0.750000 0.970823 0.375000 O2-
0.000000 0.375000 0.426392 O2-
1.000000 0.875000 0.426392 O2-
0.500000 0.375000 0.426392 O2-
0.500000 0.875000 0.426392 O2-
0.250000 0.029177 0.458333 O2-
0.250000 0.529177 0.458333 O2-
0.750000 0.029177 0.458333 O2-
0.750000 0.529177 0.458333 O2-
0.000000 0.375000 0.490274 O2-
1.000000 0.875000 0.490274 O2-
0.500000 0.375000 0.490274 O2-
0.500000 0.875000 0.490274 O2-
0.250000 0.220823 0.458333 O2-
0.250000 0.720823 0.458333 O2-
0.750000 0.220823 0.458333 O2-
0.750000 0.720823 0.458333 O2-
0.000000 0.125000 0.509726 O2-
1.000000 0.625000 0.509726 O2-
0.500000 0.125000 0.509726 O2-
0.500000 0.625000 0.509726 O2-
0.250000 0.279177 0.541667 O2-
0.250000 0.779177 0.541667 O2-
0.750000 0.279177 0.541667 O2-
0.750000 0.779177 0.541667 O2-
1.000000 0.125000 0.573608 O2-
1.000000 0.625000 0.573608 O2-
0.500000 0.125000 0.573608 O2-
0.500000 0.625000 0.573608 O2-
0.250000 0.470823 0.541667 O2-
0.250000 0.970823 0.541667 O2-
0.750000 0.470823 0.541667 O2-
0.750000 0.970823 0.541667 O2-
0.000000 0.375000 0.593059 O2-
0.000000 0.875000 0.593059 O2-
0.500000 0.375000 0.593059 O2-
0.500000 0.875000 0.593059 O2-
0.250000 0.029177 0.625000 O2-
0.250000 0.529177 0.625000 O2-
0.750000 0.029177 0.625000 O2-
0.750000 0.529177 0.625000 O2-
0.000000 0.375000 0.656941 O2-
1.000000 0.875000 0.656941 O2-
0.500000 0.375000 0.656941 O2-
0.500000 0.875000 0.656941 O2-
0.250000 0.220823 0.625000 O2-
0.250000 0.720823 0.625000 O2-
0.750000 0.220823 0.625000 O2-
0.750000 0.720823 0.625000 O2-
