Pd64 O1                                 
    1.000000000000000     
    11.0798020200000007    0.0000000000000000    0.0000000000000000
     0.0000000000000000   11.0798020200000007    0.0000000000000000
     0.0000000000000000    0.0000000000000000   39.1730157000000005
   Pd   O 
    64     1
Selective dynamics
Direct
  0.0001826849636985  0.2499344506194263  0.5252303691556404   T   T   T
  0.0002323372859158  0.5002339758574702  0.5252271826618475   T   T   T
  0.0010553650320954  0.7515876709198929  0.5258921935921237   T   T   T
  0.0011696565600655  0.9985585486118131  0.5259140615846738   T   T   T
  0.2504040290152268  0.2495370364052446  0.5252970045819692   T   T   T
  0.2503714236600542  0.5002262756570580  0.5253049829180239   T   T   T
  0.2496517474764807  0.7515041116895077  0.5258684507227415   T   T   T
  0.2497300491289963  0.9982122468578711  0.5259018898128670   T   T   T
  0.5004687025541011  0.2499292173742376  0.5252516699242068   T   T   T
  0.5004676322645784  0.5001486428412837  0.5252570175653759   T   T   T
  0.4974191733036252  0.7511911060324061  0.5258654464911325   T   T   T
  0.4974072969813291  0.9988624835812978  0.5258631931305187   T   T   T
  0.7503055569357622  0.2501435161032171  0.5252347489907114   T   T   T
  0.7503000458912246  0.5002623346358599  0.5252041127167441   T   T   T
  0.7492351937518069  0.7507138208884063  0.5254208866957938   T   T   T
  0.7492877688842572  0.9998111436314815  0.5254287175952397   T   T   T
  0.1242718080220070  0.1270575967680719  0.5748466414765949   T   T   T
  0.1271116934182251  0.3747838033451528  0.5747639161641894   T   T   T
  0.1241106984568928  0.6228000314600081  0.5748616036118416   T   T   T
  0.1181738933403990  0.8750227686206737  0.5800398358370620   T   T   T
  0.3765357297621431  0.1258777671203967  0.5748471144915719   T   T   T
  0.3770643362960403  0.3744093412178659  0.5748094739021122   T   T   T
  0.3763827441734606  0.6230065001368017  0.5748438896641807   T   T   T
  0.3690371574564800  0.8729993874341684  0.5817984148113559   T   T   T
  0.6263062651741903  0.1263707764468316  0.5748344842602782   T   T   T
  0.6270066566452834  0.3759255278706237  0.5747704925091406   T   T   T
  0.6264818823219864  0.6253998061453604  0.5748334254503492   T   T   T
  0.6207292741455968  0.8758619878591386  0.5751332620053394   T   T   T
  0.8739395214360651  0.1265300518937708  0.5748293940801815   T   T   T
  0.8770650460073818  0.3758886829750906  0.5747717263831108   T   T   T
  0.8736947416726216  0.6247636014400297  0.5748125376328654   T   T   T
  0.8725749695126013  0.8756332164203108  0.5752917404870689   T   T   T
  0.2500000000000000  0.0000000000000000  0.4249999999999972   F   F   F
  0.2500000000000000  0.2500000000000000  0.4249999999999972   F   F   F
  0.2500000000000000  0.5000000000000000  0.4249999999999972   F   F   F
  0.2500000000000000  0.7500000000000000  0.4249999999999972   F   F   F
  0.5000000000000000  0.0000000000000000  0.4249999999999972   F   F   F
  0.5000000000000000  0.2500000000000000  0.4249999999999972   F   F   F
  0.5000000000000000  0.5000000000000000  0.4249999999999972   F   F   F
  0.5000000000000000  0.7500000000000000  0.4249999999999972   F   F   F
  0.7500000000000000  0.0000000000000000  0.4249999999999972   F   F   F
  0.7500000000000000  0.2500000000000000  0.4249999999999972   F   F   F
  0.7500000000000000  0.5000000000000000  0.4249999999999972   F   F   F
  0.7500000000000000  0.7500000000000000  0.4249999999999972   F   F   F
  0.0000000000000000  0.0000000000000000  0.4249999999999972   F   F   F
  0.0000000000000000  0.2500000000000000  0.4249999999999972   F   F   F
  0.0000000000000000  0.5000000000000000  0.4249999999999972   F   F   F
  0.0000000000000000  0.7500000000000000  0.4249999999999972   F   F   F
  0.1250000000000000  0.1250000000000000  0.4750000000000014   F   F   F
  0.1250000000000000  0.3750000000000000  0.4750000000000014   F   F   F
  0.1250000000000000  0.6250000000000000  0.4750000000000014   F   F   F
  0.1250000000000000  0.8750000000000000  0.4750000000000014   F   F   F
  0.3750000000000000  0.1250000000000000  0.4750000000000014   F   F   F
  0.3750000000000000  0.3750000000000000  0.4750000000000014   F   F   F
  0.3750000000000000  0.6250000000000000  0.4750000000000014   F   F   F
  0.3750000000000000  0.8750000000000000  0.4750000000000014   F   F   F
  0.6250000000000000  0.1250000000000000  0.4750000000000014   F   F   F
  0.6250000000000000  0.3750000000000000  0.4750000000000014   F   F   F
  0.6250000000000000  0.6250000000000000  0.4750000000000014   F   F   F
  0.6250000000000000  0.8750000000000000  0.4750000000000014   F   F   F
  0.8750000000000000  0.1250000000000000  0.4750000000000014   F   F   F
  0.8750000000000000  0.3750000000000000  0.4750000000000014   F   F   F
  0.8750000000000000  0.6250000000000000  0.4750000000000014   F   F   F
  0.8750000000000000  0.8750000000000000  0.4750000000000014   F   F   F
  0.2382080273602635  0.8706236078956037  0.6162397367676127   T   T   T
 
  0.00000000E+00  0.00000000E+00  0.00000000E+00
  0.00000000E+00  0.00000000E+00  0.00000000E+00
  0.00000000E+00  0.00000000E+00  0.00000000E+00
  0.00000000E+00  0.00000000E+00  0.00000000E+00
  0.00000000E+00  0.00000000E+00  0.00000000E+00
  0.00000000E+00  0.00000000E+00  0.00000000E+00
  0.00000000E+00  0.00000000E+00  0.00000000E+00
  0.00000000E+00  0.00000000E+00  0.00000000E+00
  0.00000000E+00  0.00000000E+00  0.00000000E+00
  0.00000000E+00  0.00000000E+00  0.00000000E+00
  0.00000000E+00  0.00000000E+00  0.00000000E+00
  0.00000000E+00  0.00000000E+00  0.00000000E+00
  0.00000000E+00  0.00000000E+00  0.00000000E+00
  0.00000000E+00  0.00000000E+00  0.00000000E+00
  0.00000000E+00  0.00000000E+00  0.00000000E+00
  0.00000000E+00  0.00000000E+00  0.00000000E+00
  0.00000000E+00  0.00000000E+00  0.00000000E+00
  0.00000000E+00  0.00000000E+00  0.00000000E+00
  0.00000000E+00  0.00000000E+00  0.00000000E+00
  0.00000000E+00  0.00000000E+00  0.00000000E+00
  0.00000000E+00  0.00000000E+00  0.00000000E+00
  0.00000000E+00  0.00000000E+00  0.00000000E+00
  0.00000000E+00  0.00000000E+00  0.00000000E+00
  0.00000000E+00  0.00000000E+00  0.00000000E+00
  0.00000000E+00  0.00000000E+00  0.00000000E+00
  0.00000000E+00  0.00000000E+00  0.00000000E+00
  0.00000000E+00  0.00000000E+00  0.00000000E+00
  0.00000000E+00  0.00000000E+00  0.00000000E+00
  0.00000000E+00  0.00000000E+00  0.00000000E+00
  0.00000000E+00  0.00000000E+00  0.00000000E+00
  0.00000000E+00  0.00000000E+00  0.00000000E+00
  0.00000000E+00  0.00000000E+00  0.00000000E+00
  0.00000000E+00  0.00000000E+00  0.00000000E+00
  0.00000000E+00  0.00000000E+00  0.00000000E+00
  0.00000000E+00  0.00000000E+00  0.00000000E+00
  0.00000000E+00  0.00000000E+00  0.00000000E+00
  0.00000000E+00  0.00000000E+00  0.00000000E+00
  0.00000000E+00  0.00000000E+00  0.00000000E+00
  0.00000000E+00  0.00000000E+00  0.00000000E+00
  0.00000000E+00  0.00000000E+00  0.00000000E+00
  0.00000000E+00  0.00000000E+00  0.00000000E+00
  0.00000000E+00  0.00000000E+00  0.00000000E+00
  0.00000000E+00  0.00000000E+00  0.00000000E+00
  0.00000000E+00  0.00000000E+00  0.00000000E+00
  0.00000000E+00  0.00000000E+00  0.00000000E+00
  0.00000000E+00  0.00000000E+00  0.00000000E+00
  0.00000000E+00  0.00000000E+00  0.00000000E+00
  0.00000000E+00  0.00000000E+00  0.00000000E+00
  0.00000000E+00  0.00000000E+00  0.00000000E+00
  0.00000000E+00  0.00000000E+00  0.00000000E+00
  0.00000000E+00  0.00000000E+00  0.00000000E+00
  0.00000000E+00  0.00000000E+00  0.00000000E+00
  0.00000000E+00  0.00000000E+00  0.00000000E+00
  0.00000000E+00  0.00000000E+00  0.00000000E+00
  0.00000000E+00  0.00000000E+00  0.00000000E+00
  0.00000000E+00  0.00000000E+00  0.00000000E+00
  0.00000000E+00  0.00000000E+00  0.00000000E+00
  0.00000000E+00  0.00000000E+00  0.00000000E+00
  0.00000000E+00  0.00000000E+00  0.00000000E+00
  0.00000000E+00  0.00000000E+00  0.00000000E+00
  0.00000000E+00  0.00000000E+00  0.00000000E+00
  0.00000000E+00  0.00000000E+00  0.00000000E+00
  0.00000000E+00  0.00000000E+00  0.00000000E+00
  0.00000000E+00  0.00000000E+00  0.00000000E+00
  0.00000000E+00  0.00000000E+00  0.00000000E+00
