Ba2 Sr2 Co4 O12                         
    1.000000000000000     
    -3.9247679999999998   -3.9281570000000001   -0.0000000000000000
    -3.9247679999999998    3.9281570000000001    0.0000000000000000
     0.0000000000000000    0.0000000000000000   -7.9354750000000003
   Ba   Sr   Co   O 
     2     2     4    12
Direct
 -0.0000000214190331  0.0000000186321834  0.0000017226913280
  0.5000001208306277  0.5000000868675909  0.4999982518335636
  0.5000000459528435  0.5000000322593772  0.0000019379332972
 -0.0000000601392502 -0.0000000463217541  0.4999980451096846
  0.4999999345635347 -0.0000000595695693  0.7500004519650673
  0.0000002179956820  0.4999999950766997  0.7500000800160238
 -0.0000000730919651  0.5000001022414401  0.2499998332222512
  0.5000005690084979 -0.0000004260854866  0.2499999427051722
  0.0000000289164103  0.4999999493743048  0.5003230404242929
 -0.0000000173010878  0.4999999512419918  0.9996771127704361
  0.2730710458511234  0.7730710805469756  0.7500000041941726
  0.7729238792430657  0.7270767572313451  0.7499999860282878
  0.7269293725801468  0.2269292391704551  0.7500001125594801
  0.2270765242243760  0.2729239621545810  0.7500001168253141
  0.5000000320550423 -0.0000000776890199  0.0003390307492126
  0.5000000317325134 -0.0000000320190312  0.4996606407844734
  0.7730723343779971  0.2730719928539341  0.2499999199972196
  0.2729345653707073  0.2270659966139483  0.2499999065911477
  0.2269279086413897  0.7269280165008563  0.2499999798542030
  0.7270655606073735  0.7729344609191751  0.2499998837453725
 
  0.00000000E+00  0.00000000E+00  0.00000000E+00
  0.00000000E+00  0.00000000E+00  0.00000000E+00
  0.00000000E+00  0.00000000E+00  0.00000000E+00
  0.00000000E+00  0.00000000E+00  0.00000000E+00
  0.00000000E+00  0.00000000E+00  0.00000000E+00
  0.00000000E+00  0.00000000E+00  0.00000000E+00
  0.00000000E+00  0.00000000E+00  0.00000000E+00
  0.00000000E+00  0.00000000E+00  0.00000000E+00
  0.00000000E+00  0.00000000E+00  0.00000000E+00
  0.00000000E+00  0.00000000E+00  0.00000000E+00
  0.00000000E+00  0.00000000E+00  0.00000000E+00
  0.00000000E+00  0.00000000E+00  0.00000000E+00
  0.00000000E+00  0.00000000E+00  0.00000000E+00
  0.00000000E+00  0.00000000E+00  0.00000000E+00
  0.00000000E+00  0.00000000E+00  0.00000000E+00
  0.00000000E+00  0.00000000E+00  0.00000000E+00
  0.00000000E+00  0.00000000E+00  0.00000000E+00
  0.00000000E+00  0.00000000E+00  0.00000000E+00
  0.00000000E+00  0.00000000E+00  0.00000000E+00
  0.00000000E+00  0.00000000E+00  0.00000000E+00
