H1 Ir32 O73                             
   1.00000000000000     
     9.0898780000000006    0.0000000000000000    0.0000000000000000
     0.0000000000000000   11.1045669999999994   -0.0793000000000000
     0.0000000000000000    0.0000000000000000   31.3300599999999996
   H    Ir   O 
     1    32    73
Direct
  0.5330592485079623  0.9193200870986646  0.6832851015115915
  0.2634008409706576  0.3288018012480345  0.3751185634860273
  0.2631836924918938  0.8288776734460130  0.3751380608520675
  0.7633926051129447  0.3288075485878575  0.3751231457630452
  0.7631968281315480  0.8288703164694168  0.3751387356202106
  0.9885349619296461  0.0788192981855900  0.3759572720193283
  0.9879310421546580  0.5789541231112543  0.3759089459176981
  0.4884899720566087  0.0788197629033751  0.3759668674478664
  0.4879556601045286  0.5789835236762427  0.3758897582114680
  0.2471112466201109  0.0013484787090376  0.4578225391735623
  0.2468290909125250  0.5015158258192718  0.4576697245949697
  0.7470572394234292  0.0014490513525181  0.4578056438455483
  0.7471228274194077  0.5013246796058243  0.4577798355912065
  0.0014629168339297  0.2528649663614218  0.4578457973576602
  0.0015193379121009  0.7528860282502773  0.4578492543779775
  0.5014939476110175  0.2528686884623765  0.4578356364602937
  0.5012108742980874  0.7528012421409298  0.4578862125886245
  0.2508543965626864  0.1670487422053607  0.5411641265498217
  0.2508614412136007  0.6671068050495631  0.5415550412289230
  0.7509681907434854  0.1671559324707022  0.5413075339867822
  0.7506707851411402  0.6668706706966140  0.5408864641528158
  0.0009904867019477  0.4166872517581851  0.5423497004613678
 -0.0015820996727958  0.9183642869051766  0.5423127811120645
  0.5005820420073915  0.4167439971728026  0.5423344448893955
  0.5015479350719455  0.9170033868356282  0.5423171798950762
  0.2474838004485094  0.3336800779949953  0.6278730915100289
  0.2489121207156678  0.8377765453106755  0.6251524972301465
  0.7479078065237017  0.3343460754947079  0.6277712551757985
  0.7497340274752790  0.8315656784994581  0.6270238515002166
  0.0060360784438565  0.0848037560445971  0.6271073383041056
  0.0060532203560943  0.5854845086605923  0.6271369730860519
  0.5058216882004749  0.0859331367099620  0.6268014939044516
  0.5054261101797410  0.5846857797524341  0.6270126036600531
  0.3500089987807486  0.1888954066406729  0.3510878879499817
  0.3466411752196591  0.6881400282908449  0.3511078726151739
  0.8500093971544486  0.1888960814635562  0.3510881538923856
  0.8466433733656484  0.6881390783695154  0.3511086540213813
  0.0956388399621108  0.2318438997462420  0.3993535429537342
  0.0955957592135628  0.7318455727941006  0.3993532994942869
  0.5956393475371022  0.2318430549865156  0.3993535097578781
  0.5955903884738367  0.7318472909646647  0.3993544857314702
  0.1528912608276247  0.4817515596666790  0.3993408575704817
  0.1530022517607620  0.9817427005544751  0.3993475886459031
  0.6529129496050221  0.4817614598418912  0.3993418618596577
  0.6529998647796048  0.9817433963675074  0.3993479386675299
  0.4033964168358300  0.4382064586322817  0.3510533872025451
  0.4034059717910967  0.9382031172414146  0.3510567677513748
  0.9033815530858975  0.4382150197648144  0.3510515659189700
  0.9034022595419109  0.9382033947668710  0.3510556796832070
  0.3426081760021595  0.3531832484564462  0.4340027020855504
  0.3426205332787731  0.8531859251482102  0.4340035741162968
  0.8426280060930108  0.3531805468012890  0.4340035620626774
  0.8426146188399144  0.8531874842066545  0.4340036883868842
  0.0957519884594130  0.4005054236861675  0.4845400830579844
  0.0957370143858055  0.9005176995530455  0.4845498797948196
  0.5957466939478905  0.4005062752082535  0.4845424209194626
  0.5957322759527984  0.9004920277393819  0.4845396371376297
  0.1530296165288742  0.1489930191176647  0.4840266562305966
  0.1530350075554446  0.6490359818416858  0.4840416558228465
  0.6530476461411081  0.1490105629860140  0.4840295077244514
  0.6529738948968814  0.6489932046232557  0.4840189069156807
  0.4044471710188074  0.1017174856336314  0.4340252230850591
  0.4044466308382390  0.6017137424721772  0.4340195544325426
  0.9044534667993304  0.1017161146683405  0.4340234589987834
  0.9044521865190853  0.6017193860228938  0.4340228155306303
  0.3460024832718363  0.0182984980769655  0.5162070889374732
  0.3458710338328947  0.5184305802744423  0.5155620150753404
  0.8458977497986834  0.0183355160424202  0.5161864997627746
  0.8467207778126735  0.5179898219969271  0.5159938075862025
  0.0959298690503290  0.0660478734589300  0.5667204575722034
  0.0959661385515730  0.5659458138735993  0.5667147980696907
  0.5961078866517868  0.0659844769960220  0.5667323679182610
  0.5959604996394593  0.5659198068373144  0.5666989453280847
  0.1570192051354456  0.3136265629038781  0.5660587235658950
  0.1530956290808659  0.8157261952046054  0.5673892706216412
  0.6569799251684255  0.3136332298506241  0.5660596683280548
  0.6570575642834744  0.8136188387112931  0.5660477582981445
  0.4045279489807861  0.2679637038390627  0.5159885641659571
  0.4045063311802082  0.7680046758113239  0.5159988527183881
  0.9045321158143481  0.2679672007481606  0.5159905247229923
  0.9045066647606836  0.7679947685380570  0.5159846436846003
  0.3447892548274472  0.1869751906844009  0.6002574402459940
  0.3449804487325515  0.6869205035029172  0.6001549741124246
  0.8448361228061548  0.1869437002022937  0.6002589080771643
  0.8455712114622828  0.6859965418186187  0.5995879865078660
  0.0959290973902868  0.2322403660004096  0.6492654895335971
  0.1032427154371738  0.7323026477065073  0.6488336001348320
  0.5960658468449751  0.2322705022499987  0.6492471730948725
  0.5970232069778801  0.7324656904940717  0.6487852551454628
  0.1501651087096811  0.4832897746509008  0.6477603175511286
  0.1544835925472698  0.9820541829986197  0.6470663511740843
  0.6501643415261158  0.4832903018544255  0.6477608512880604
  0.6499638523705018  0.9783649183846941  0.6491800477363205
  0.4023514365971834  0.4367207424745300  0.6002043770524549
  0.4071982941184188  0.9388166417405155  0.6009971843267524
  0.9024198691218462  0.4367612659585239  0.6002378114427159
  0.9022628646289271  0.9368746854611697  0.6001536299870274
  0.3432764452441597  0.3490276383347483  0.6784674784022582
  0.8432695869145848  0.3490294683347381  0.6784664902495794
  0.8501292213554401  0.8433710929952480  0.6760621068445805
  0.9068981013770043  0.0934641963166446  0.6761303436010668
  0.9068791099667237  0.5935467686890230  0.6761219139396635
  0.4069310287808381  0.0946519935000481  0.6762496025486905
  0.4068575057023220  0.5934906846831359  0.6761223293398833
  0.3387344873735130  0.8434140666018649  0.6855172370596754
  0.4601423283770858  0.8865464959515892  0.7052812627640261
 
  0.00000000E+00  0.00000000E+00  0.00000000E+00
  0.00000000E+00  0.00000000E+00  0.00000000E+00
  0.00000000E+00  0.00000000E+00  0.00000000E+00
  0.00000000E+00  0.00000000E+00  0.00000000E+00
  0.00000000E+00  0.00000000E+00  0.00000000E+00
  0.00000000E+00  0.00000000E+00  0.00000000E+00
  0.00000000E+00  0.00000000E+00  0.00000000E+00
  0.00000000E+00  0.00000000E+00  0.00000000E+00
  0.00000000E+00  0.00000000E+00  0.00000000E+00
  0.00000000E+00  0.00000000E+00  0.00000000E+00
  0.00000000E+00  0.00000000E+00  0.00000000E+00
  0.00000000E+00  0.00000000E+00  0.00000000E+00
  0.00000000E+00  0.00000000E+00  0.00000000E+00
  0.00000000E+00  0.00000000E+00  0.00000000E+00
  0.00000000E+00  0.00000000E+00  0.00000000E+00
  0.00000000E+00  0.00000000E+00  0.00000000E+00
  0.00000000E+00  0.00000000E+00  0.00000000E+00
  0.00000000E+00  0.00000000E+00  0.00000000E+00
  0.00000000E+00  0.00000000E+00  0.00000000E+00
  0.00000000E+00  0.00000000E+00  0.00000000E+00
  0.00000000E+00  0.00000000E+00  0.00000000E+00
  0.00000000E+00  0.00000000E+00  0.00000000E+00
  0.00000000E+00  0.00000000E+00  0.00000000E+00
  0.00000000E+00  0.00000000E+00  0.00000000E+00
  0.00000000E+00  0.00000000E+00  0.00000000E+00
  0.00000000E+00  0.00000000E+00  0.00000000E+00
  0.00000000E+00  0.00000000E+00  0.00000000E+00
  0.00000000E+00  0.00000000E+00  0.00000000E+00
  0.00000000E+00  0.00000000E+00  0.00000000E+00
  0.00000000E+00  0.00000000E+00  0.00000000E+00
  0.00000000E+00  0.00000000E+00  0.00000000E+00
  0.00000000E+00  0.00000000E+00  0.00000000E+00
  0.00000000E+00  0.00000000E+00  0.00000000E+00
  0.00000000E+00  0.00000000E+00  0.00000000E+00
  0.00000000E+00  0.00000000E+00  0.00000000E+00
  0.00000000E+00  0.00000000E+00  0.00000000E+00
  0.00000000E+00  0.00000000E+00  0.00000000E+00
  0.00000000E+00  0.00000000E+00  0.00000000E+00
  0.00000000E+00  0.00000000E+00  0.00000000E+00
  0.00000000E+00  0.00000000E+00  0.00000000E+00
  0.00000000E+00  0.00000000E+00  0.00000000E+00
  0.00000000E+00  0.00000000E+00  0.00000000E+00
  0.00000000E+00  0.00000000E+00  0.00000000E+00
  0.00000000E+00  0.00000000E+00  0.00000000E+00
  0.00000000E+00  0.00000000E+00  0.00000000E+00
  0.00000000E+00  0.00000000E+00  0.00000000E+00
  0.00000000E+00  0.00000000E+00  0.00000000E+00
  0.00000000E+00  0.00000000E+00  0.00000000E+00
  0.00000000E+00  0.00000000E+00  0.00000000E+00
  0.00000000E+00  0.00000000E+00  0.00000000E+00
  0.00000000E+00  0.00000000E+00  0.00000000E+00
  0.00000000E+00  0.00000000E+00  0.00000000E+00
  0.00000000E+00  0.00000000E+00  0.00000000E+00
  0.00000000E+00  0.00000000E+00  0.00000000E+00
  0.00000000E+00  0.00000000E+00  0.00000000E+00
  0.00000000E+00  0.00000000E+00  0.00000000E+00
  0.00000000E+00  0.00000000E+00  0.00000000E+00
  0.00000000E+00  0.00000000E+00  0.00000000E+00
  0.00000000E+00  0.00000000E+00  0.00000000E+00
  0.00000000E+00  0.00000000E+00  0.00000000E+00
  0.00000000E+00  0.00000000E+00  0.00000000E+00
  0.00000000E+00  0.00000000E+00  0.00000000E+00
  0.00000000E+00  0.00000000E+00  0.00000000E+00
  0.00000000E+00  0.00000000E+00  0.00000000E+00
  0.00000000E+00  0.00000000E+00  0.00000000E+00
  0.00000000E+00  0.00000000E+00  0.00000000E+00
  0.00000000E+00  0.00000000E+00  0.00000000E+00
  0.00000000E+00  0.00000000E+00  0.00000000E+00
  0.00000000E+00  0.00000000E+00  0.00000000E+00
  0.00000000E+00  0.00000000E+00  0.00000000E+00
  0.00000000E+00  0.00000000E+00  0.00000000E+00
  0.00000000E+00  0.00000000E+00  0.00000000E+00
  0.00000000E+00  0.00000000E+00  0.00000000E+00
  0.00000000E+00  0.00000000E+00  0.00000000E+00
  0.00000000E+00  0.00000000E+00  0.00000000E+00
  0.00000000E+00  0.00000000E+00  0.00000000E+00
  0.00000000E+00  0.00000000E+00  0.00000000E+00
  0.00000000E+00  0.00000000E+00  0.00000000E+00
  0.00000000E+00  0.00000000E+00  0.00000000E+00
  0.00000000E+00  0.00000000E+00  0.00000000E+00
  0.00000000E+00  0.00000000E+00  0.00000000E+00
  0.00000000E+00  0.00000000E+00  0.00000000E+00
  0.00000000E+00  0.00000000E+00  0.00000000E+00
  0.00000000E+00  0.00000000E+00  0.00000000E+00
  0.00000000E+00  0.00000000E+00  0.00000000E+00
  0.00000000E+00  0.00000000E+00  0.00000000E+00
  0.00000000E+00  0.00000000E+00  0.00000000E+00
  0.00000000E+00  0.00000000E+00  0.00000000E+00
  0.00000000E+00  0.00000000E+00  0.00000000E+00
  0.00000000E+00  0.00000000E+00  0.00000000E+00
  0.00000000E+00  0.00000000E+00  0.00000000E+00
  0.00000000E+00  0.00000000E+00  0.00000000E+00
  0.00000000E+00  0.00000000E+00  0.00000000E+00
  0.00000000E+00  0.00000000E+00  0.00000000E+00
  0.00000000E+00  0.00000000E+00  0.00000000E+00
  0.00000000E+00  0.00000000E+00  0.00000000E+00
  0.00000000E+00  0.00000000E+00  0.00000000E+00
  0.00000000E+00  0.00000000E+00  0.00000000E+00
  0.00000000E+00  0.00000000E+00  0.00000000E+00
  0.00000000E+00  0.00000000E+00  0.00000000E+00
  0.00000000E+00  0.00000000E+00  0.00000000E+00
  0.00000000E+00  0.00000000E+00  0.00000000E+00
  0.00000000E+00  0.00000000E+00  0.00000000E+00
  0.00000000E+00  0.00000000E+00  0.00000000E+00
  0.00000000E+00  0.00000000E+00  0.00000000E+00
  0.00000000E+00  0.00000000E+00  0.00000000E+00
