H1 Ir32 O73                             
   1.00000000000000     
     9.0898780000000006    0.0000000000000000    0.0000000000000000
     0.0000000000000000   11.1045669999999994   -0.0793000000000000
     0.0000000000000000    0.0000000000000000   31.3300599999999996
   H    Ir   O 
     1    32    73
Direct
  0.4139652793587185  0.6645761341087445  0.6919327686327686
  0.2631765719616761  0.3288225337496603  0.3750708225939149
  0.2631930583569903  0.8289728056577178  0.3750868128901535
  0.7632345044423868  0.3289723913771200  0.3750868001354790
  0.7632523292932988  0.8289102672333969  0.3750829706310026
  0.9879942850119122  0.0791831506580563  0.3757223819943864
  0.9880268197212578  0.5791680630916839  0.3757130996135317
  0.4880246349921132  0.0791682967305640  0.3757261551043026
  0.4873240815760980  0.5793904664405692  0.3752132519346829
  0.2482348784815976  0.0022294643382153  0.4573981617590664
  0.2479886042085931  0.5023615926507199  0.4571836147185281
  0.7481472805951591  0.0022381226537527  0.4573624914367894
  0.7482001073610960  0.5023052413370365  0.4573413171130535
  0.0018199810624418  0.2530043373799191  0.4577446218246654
  0.0018431722512856  0.7530117079409057  0.4577459215009399
  0.5018522320778971  0.2529326218178651  0.4576966688171701
  0.5018447734088637  0.7529757781898435  0.4576859011425878
  0.2509968764446937  0.1669570501128420  0.5410902572232280
  0.2510381170727211  0.6665762702086245  0.5410807770283477
  0.7510371812235641  0.1670448526592011  0.5410440168884596
  0.7510050860472695  0.6671488910858253  0.5409097002585704
  0.0015415094885501  0.4166966852215905  0.5421896017400875
  0.0008745927452253  0.9168832140389248  0.5422918848421725
  0.5020445478575211  0.4165608995244868  0.5414495082276759
  0.5012223669606981  0.9167426801611221  0.5423026713388838
  0.2494216726354472  0.3340020091915054  0.6274625909770422
  0.2426373001485212  0.8339308930786798  0.6257790272871330
  0.7489691112949002  0.3342688603410365  0.6274903293122921
  0.7485987386589519  0.8338540523166821  0.6275751316391650
  0.0061556749815162  0.0848805114586756  0.6270866408730096
  0.0064949742924600  0.5843546245610743  0.6270881818864399
  0.5064035393742919  0.0842375380522753  0.6270162361452294
  0.5088723807376662  0.5837365742319053  0.6249746919658952
  0.3465869405660951  0.1881360776992668  0.3510815576889939
  0.3463603858308728  0.6881973832912999  0.3510347307380102
  0.8465818667707736  0.1881494270973143  0.3510819329078405
  0.8465831988121795  0.6881488308529249  0.3510819454325143
  0.0956379869725696  0.2318881567496123  0.3993344874251668
  0.0956366959456855  0.7318899789311809  0.3993327235592759
  0.5956482140777117  0.2318908649134207  0.3993305030611158
  0.5956398307043618  0.7318899554138243  0.3993251998494084
  0.1529497452843445  0.4817825153466592  0.3993100115493817
  0.1529907825601736  0.9817826262801499  0.3993180099680275
  0.6529061963262660  0.4818055959718556  0.3993085401051776
  0.6529543578668480  0.9817928316849440  0.3993192793759125
  0.4027669400805814  0.4369445706871475  0.3504912377497403
  0.4033526738162237  0.9382235462859474  0.3510298481999974
  0.9033452728072230  0.4382244013921052  0.3510278444506931
  0.9033510582853933  0.9382250942981508  0.3510299465318423
  0.3426324904381060  0.3531884510986913  0.4339929633898674
  0.3426784634051760  0.8531963742482225  0.4339956337804206
  0.8426406025548421  0.3531901425640971  0.4339952775751654
  0.8426641967736580  0.8531991722075022  0.4339954593934676
  0.0958424663898435  0.4005444678341933  0.4845162054064136
  0.0958283801007376  0.9005434309075948  0.4845206172881324
  0.5958825403034556  0.4005109105863237  0.4844866548521491
  0.5958250548177374  0.9005342877794577  0.4845203378849478
  0.1531360801726508  0.1490616070464325  0.4840026883354435
  0.1530741473757915  0.6490619667276770  0.4839889534917162
  0.6531131539364127  0.1490549740862976  0.4839977280137925
  0.6530946023561455  0.6490585402062258  0.4839901267491203
  0.4046055811931399  0.1017255184029513  0.4339927851733055
  0.4042271676374592  0.6020649456617073  0.4334246202368222
  0.9046057452386344  0.1017268501880683  0.4339930124785731
  0.9046068159750086  0.6017275160038145  0.4339923141732617
  0.3468253002822384  0.0180614867276798  0.5159662100574087
  0.3459269367098414  0.5183783136779224  0.5155247624502416
  0.8468015924117769  0.0180333262479115  0.5159602478515428
  0.8468263392279737  0.5180423538582856  0.5159574380144645
  0.0960108155505138  0.0659459083272824  0.5666852377108861
  0.0960558251553995  0.5658707937195105  0.5666908093954731
  0.5960894853693358  0.0659060324239573  0.5667137552163934
  0.5957487450225680  0.5653665655033548  0.5659827946671416
  0.1572700432801380  0.3136345771414077  0.5660445187715383
  0.1568548452695709  0.8135978569521821  0.5660172998639811
  0.6570816095160277  0.3136423508188350  0.5660370548271814
  0.6570922723926175  0.8136424146929008  0.5660469934608899
  0.4046149605917562  0.2679478174733764  0.5159641050204774
  0.4045755522289828  0.7679786507418974  0.5159730786253804
  0.9045918564757011  0.2679900672773727  0.5159720005316036
  0.9045895617508424  0.7680031529152833  0.5159723320220244
  0.3450771827007540  0.1866772539398555  0.6001296247494351
  0.3452502226411334  0.6863886862786510  0.6000236287846508
  0.8451284588955780  0.1865742884654341  0.5999918738083742
  0.8450706596567115  0.6866785261167094  0.6001300697171508
  0.0972539172658161  0.2323850983316830  0.6487680065095889
  0.0969760189657401  0.7318390075531591  0.6494112511753339
  0.5972333587898752  0.2323957179327443  0.6487699806912061
  0.5968931450553467  0.7320748750974816  0.6487306931741317
  0.1531875102161621  0.4780464767819814  0.6479386879427993
  0.1543686447838443  0.9819566559603844  0.6470270604841875
  0.6540542165440498  0.4820722815781198  0.6469912369001315
  0.6500153010644014  0.9781692696989036  0.6489784597158154
  0.4031267302148914  0.4364321325884823  0.5995113096338661
  0.4024138241766277  0.9365319968794696  0.6001730293720757
  0.9025648549945289  0.4364505361695670  0.5999399166830639
  0.9023679035999237  0.9367242368080135  0.6001289992125038
  0.3438567786926479  0.3486971052334645  0.6783965495081257
  0.8434258799459710  0.3489709720292613  0.6784477374262561
  0.8435819379087602  0.8488917984132763  0.6784404028018127
  0.9069160090198709  0.0934802011972257  0.6761079209091918
  0.9069243114870273  0.5934735686259763  0.6761137980010706
  0.4069507323141752  0.0935755370649153  0.6761270704356974
  0.4085803532638972  0.5825225688201355  0.6775048014453880
  0.3455650057412397  0.8635679555788188  0.6821503433478285
  0.3675884013242787  0.7850099903118207  0.7106057227913276
 
  0.00000000E+00  0.00000000E+00  0.00000000E+00
  0.00000000E+00  0.00000000E+00  0.00000000E+00
  0.00000000E+00  0.00000000E+00  0.00000000E+00
  0.00000000E+00  0.00000000E+00  0.00000000E+00
  0.00000000E+00  0.00000000E+00  0.00000000E+00
  0.00000000E+00  0.00000000E+00  0.00000000E+00
  0.00000000E+00  0.00000000E+00  0.00000000E+00
  0.00000000E+00  0.00000000E+00  0.00000000E+00
  0.00000000E+00  0.00000000E+00  0.00000000E+00
  0.00000000E+00  0.00000000E+00  0.00000000E+00
  0.00000000E+00  0.00000000E+00  0.00000000E+00
  0.00000000E+00  0.00000000E+00  0.00000000E+00
  0.00000000E+00  0.00000000E+00  0.00000000E+00
  0.00000000E+00  0.00000000E+00  0.00000000E+00
  0.00000000E+00  0.00000000E+00  0.00000000E+00
  0.00000000E+00  0.00000000E+00  0.00000000E+00
  0.00000000E+00  0.00000000E+00  0.00000000E+00
  0.00000000E+00  0.00000000E+00  0.00000000E+00
  0.00000000E+00  0.00000000E+00  0.00000000E+00
  0.00000000E+00  0.00000000E+00  0.00000000E+00
  0.00000000E+00  0.00000000E+00  0.00000000E+00
  0.00000000E+00  0.00000000E+00  0.00000000E+00
  0.00000000E+00  0.00000000E+00  0.00000000E+00
  0.00000000E+00  0.00000000E+00  0.00000000E+00
  0.00000000E+00  0.00000000E+00  0.00000000E+00
  0.00000000E+00  0.00000000E+00  0.00000000E+00
  0.00000000E+00  0.00000000E+00  0.00000000E+00
  0.00000000E+00  0.00000000E+00  0.00000000E+00
  0.00000000E+00  0.00000000E+00  0.00000000E+00
  0.00000000E+00  0.00000000E+00  0.00000000E+00
  0.00000000E+00  0.00000000E+00  0.00000000E+00
  0.00000000E+00  0.00000000E+00  0.00000000E+00
  0.00000000E+00  0.00000000E+00  0.00000000E+00
  0.00000000E+00  0.00000000E+00  0.00000000E+00
  0.00000000E+00  0.00000000E+00  0.00000000E+00
  0.00000000E+00  0.00000000E+00  0.00000000E+00
  0.00000000E+00  0.00000000E+00  0.00000000E+00
  0.00000000E+00  0.00000000E+00  0.00000000E+00
  0.00000000E+00  0.00000000E+00  0.00000000E+00
  0.00000000E+00  0.00000000E+00  0.00000000E+00
  0.00000000E+00  0.00000000E+00  0.00000000E+00
  0.00000000E+00  0.00000000E+00  0.00000000E+00
  0.00000000E+00  0.00000000E+00  0.00000000E+00
  0.00000000E+00  0.00000000E+00  0.00000000E+00
  0.00000000E+00  0.00000000E+00  0.00000000E+00
  0.00000000E+00  0.00000000E+00  0.00000000E+00
  0.00000000E+00  0.00000000E+00  0.00000000E+00
  0.00000000E+00  0.00000000E+00  0.00000000E+00
  0.00000000E+00  0.00000000E+00  0.00000000E+00
  0.00000000E+00  0.00000000E+00  0.00000000E+00
  0.00000000E+00  0.00000000E+00  0.00000000E+00
  0.00000000E+00  0.00000000E+00  0.00000000E+00
  0.00000000E+00  0.00000000E+00  0.00000000E+00
  0.00000000E+00  0.00000000E+00  0.00000000E+00
  0.00000000E+00  0.00000000E+00  0.00000000E+00
  0.00000000E+00  0.00000000E+00  0.00000000E+00
  0.00000000E+00  0.00000000E+00  0.00000000E+00
  0.00000000E+00  0.00000000E+00  0.00000000E+00
  0.00000000E+00  0.00000000E+00  0.00000000E+00
  0.00000000E+00  0.00000000E+00  0.00000000E+00
  0.00000000E+00  0.00000000E+00  0.00000000E+00
  0.00000000E+00  0.00000000E+00  0.00000000E+00
  0.00000000E+00  0.00000000E+00  0.00000000E+00
  0.00000000E+00  0.00000000E+00  0.00000000E+00
  0.00000000E+00  0.00000000E+00  0.00000000E+00
  0.00000000E+00  0.00000000E+00  0.00000000E+00
  0.00000000E+00  0.00000000E+00  0.00000000E+00
  0.00000000E+00  0.00000000E+00  0.00000000E+00
  0.00000000E+00  0.00000000E+00  0.00000000E+00
  0.00000000E+00  0.00000000E+00  0.00000000E+00
  0.00000000E+00  0.00000000E+00  0.00000000E+00
  0.00000000E+00  0.00000000E+00  0.00000000E+00
  0.00000000E+00  0.00000000E+00  0.00000000E+00
  0.00000000E+00  0.00000000E+00  0.00000000E+00
  0.00000000E+00  0.00000000E+00  0.00000000E+00
  0.00000000E+00  0.00000000E+00  0.00000000E+00
  0.00000000E+00  0.00000000E+00  0.00000000E+00
  0.00000000E+00  0.00000000E+00  0.00000000E+00
  0.00000000E+00  0.00000000E+00  0.00000000E+00
  0.00000000E+00  0.00000000E+00  0.00000000E+00
  0.00000000E+00  0.00000000E+00  0.00000000E+00
  0.00000000E+00  0.00000000E+00  0.00000000E+00
  0.00000000E+00  0.00000000E+00  0.00000000E+00
  0.00000000E+00  0.00000000E+00  0.00000000E+00
  0.00000000E+00  0.00000000E+00  0.00000000E+00
  0.00000000E+00  0.00000000E+00  0.00000000E+00
  0.00000000E+00  0.00000000E+00  0.00000000E+00
  0.00000000E+00  0.00000000E+00  0.00000000E+00
  0.00000000E+00  0.00000000E+00  0.00000000E+00
  0.00000000E+00  0.00000000E+00  0.00000000E+00
  0.00000000E+00  0.00000000E+00  0.00000000E+00
  0.00000000E+00  0.00000000E+00  0.00000000E+00
  0.00000000E+00  0.00000000E+00  0.00000000E+00
  0.00000000E+00  0.00000000E+00  0.00000000E+00
  0.00000000E+00  0.00000000E+00  0.00000000E+00
  0.00000000E+00  0.00000000E+00  0.00000000E+00
  0.00000000E+00  0.00000000E+00  0.00000000E+00
  0.00000000E+00  0.00000000E+00  0.00000000E+00
  0.00000000E+00  0.00000000E+00  0.00000000E+00
  0.00000000E+00  0.00000000E+00  0.00000000E+00
  0.00000000E+00  0.00000000E+00  0.00000000E+00
  0.00000000E+00  0.00000000E+00  0.00000000E+00
  0.00000000E+00  0.00000000E+00  0.00000000E+00
  0.00000000E+00  0.00000000E+00  0.00000000E+00
  0.00000000E+00  0.00000000E+00  0.00000000E+00
  0.00000000E+00  0.00000000E+00  0.00000000E+00
