H1 Ir32 O69                             
   1.00000000000000     
     6.3790139999999997    0.0000000000000000    0.0000000000000000
     0.0000000000000000   12.8550290000000000    0.0000000000000000
     0.0000000000000000    0.0000000000000000   38.5650860000000009
   H    Ir   O 
     1    32    69
Direct
  0.1082796961983060  0.6458539500705894  0.7160161902413171
  0.2500528738709277  0.1250085666023804  0.3735424988225139
  0.2500453457916377  0.6250141424782452  0.3735439695806826
  0.7500485462433614  0.1250092533184649  0.3735423168173805
  0.7500692073968910  0.6250116963707757  0.3735431259065024
  0.0002157472603024  0.3750191366979840  0.3764768619986038
  0.0002196468657722  0.8750261203110029  0.3764675836814204
  0.5002140097365113  0.3750219678953187  0.3764785456566185
  0.5002128477194702  0.8750259813102045  0.3764782567451055
  0.2500551003322360  0.3749603993845173  0.4580079718222773
  0.2500647606828706  0.8750810010157237  0.4580083921485754
  0.7500740868832539  0.3750070443481698  0.4580086690784919
  0.7500713687395261  0.8749849313848181  0.4580077491828771
  0.0001311090477851  0.1250210295774343  0.4579427097745489
  0.0001345303773101  0.6250379636128275  0.4579439142516346
  0.5001542989531413  0.1250350001848658  0.4579431856961159
  0.5000450421434310  0.6250011211818601  0.4579335271672479
  0.2500714626254579  0.1249215930625850  0.5412742037519690
  0.2508297118575895  0.6254070450260373  0.5413265069885159
  0.7501250872985402  0.1249865826504881  0.5412710925680974
  0.7494548849993636  0.6245026788330655  0.5413351558504195
  0.0003962705863601  0.3749890877770646  0.5419556198183068
  0.0000464577164877  0.8749792614143087  0.5419609251384960
  0.5000970478225472  0.3749541255189273  0.5419585854963839
  0.5003145950942691  0.8751054714515792  0.5419525175050793
  0.2501001088257090  0.3747296859092422  0.6262859108641043
  0.2500974550511093  0.8750465715543866  0.6262920844595984
  0.7497508638104031  0.3752079134145345  0.6263192861288545
  0.7497308510941557  0.8748652033436995  0.6263030499192486
 -0.0000342273136611  0.1250106200562922  0.6262951596221609
  0.0031465340644852  0.6254315672200633  0.6246655194959961
  0.5001617019054324  0.1250503277155248  0.6263055194399287
  0.5007871805479277  0.6248600273080231  0.6264829135745390
  0.0000172022820165  0.1250013897059826  0.3423482501959029
  0.0000173707328653  0.6250013828364479  0.3423481617012785
  0.5000168632182496  0.1250013650016891  0.3423481952319176
  0.5000162232858099  0.6250011838610799  0.3423483387784410
  0.2500370035054112  0.2771471643357319  0.3749586895556154
  0.2500380142185536  0.7771473720647738  0.3749586363747540
  0.7500369051345868  0.2771471535926692  0.3749586848715399
  0.7500372285033881  0.7771471942314964  0.3749586898020518
  0.0000228648447207  0.1250013087050099  0.4075711920771709
  0.0000531697458411  0.6250011648004099  0.4075706727696558
  0.5000244520183504  0.1250013683144812  0.4075710994140134
  0.5000197921273206  0.6250011472617653  0.4075708570999167
  0.2500363917138002  0.4728566731598691  0.3749585957088395
  0.2500371763138112  0.9728568131325678  0.3749585268499629
  0.7500369320393733  0.4728567645612419  0.3749586534290184
  0.7500368132043890  0.9728567311562557  0.3749585397971037
  0.0000208537914681  0.3750009308339933  0.4257307534046710
  0.0000242986694633  0.8750012904415460  0.4257304023179048
  0.5000254099167533  0.3750010037578989  0.4257309124493782
  0.5000228961927549  0.8750010123181495  0.4257308478297928
  0.2500324055670406  0.0271517944815471  0.4583153820076951
  0.2500225755453745  0.5271484392612016  0.4583152597051854
  0.7500309987365700  0.0271491466770530  0.4583153485507347
  0.7500262789228860  0.5271500258304779  0.4583156249305180
  0.0000337988762044  0.3750007032235571  0.4909470965613069
  0.0000215120983313  0.8750016589318108  0.4909472164101942
  0.5000227464078639  0.3750009525398704  0.4909477265994178
  0.5000329129335745  0.8750012033767582  0.4909480073688686
  0.2500308153412372  0.2228532984664416  0.4583153421966896
  0.2500262085318226  0.7228563184095580  0.4583155581973233
  0.7500316679092539  0.2228545546589521  0.4583153770111492
  0.7500259461377339  0.7228531139867183  0.4583153454909676
  0.0000462531474670  0.1250008967191169  0.5090183514398243
  0.0000617187302700  0.6250017427956314  0.5090218749521969
  0.5000476037508191  0.1250008607514209  0.5090185818061232
  0.4999951979169414  0.6250023715064803  0.5090178267041303
  0.2500360447849469  0.2771352455170999  0.5416530481614868
  0.2500786065249244  0.7771583361098957  0.5416536149806904
  0.7500507317826972  0.2771380911200297  0.5416529489315418
  0.7500135200500819  0.7771290586268221  0.5416530983617085
  0.0000259494987434  0.1250007867126690  0.5742647116942058
 -0.0003093746570314  0.6249985983780092  0.5742459408540014
  0.5000261747371288  0.1250009423102131  0.5742649780392446
  0.5001975704031468  0.6250019569221836  0.5742696117492666
  0.2500646094951249  0.4728696522167001  0.5416539252256957
  0.2500283967865486  0.9728628073741431  0.5416529829007500
  0.7500112312243119  0.4728449411010763  0.5416530382821000
  0.7500452615950890  0.9728640124619643  0.5416530652759977
  0.0000128605856143  0.3750038148447444  0.5923898343492786
 -0.0000036455643080  0.8749987906368727  0.5923904405555902
  0.4999979723563667  0.3749968710495888  0.5923899236096667
  0.5000306937962583  0.8750063672155770  0.5923887223564663
  0.2500012883505466  0.0278727264694150  0.6238516766450340
  0.2500417453930435  0.5278938500837360  0.6238547429223564
  0.7500069449703398  0.0278711668075697  0.6238518024205080
  0.7499986363147392  0.5278692442381195  0.6238556208545577
 -0.0000055349127176  0.3750036683078578  0.6576139362847714
 -0.0000081040474251  0.8750020741329392  0.6576136346436677
  0.5000080072547916  0.3750058746235139  0.6576135223457082
  0.5000054711907900  0.8749962603998792  0.6576132393158884
  0.2500022976399588  0.2221238522569107  0.6238516052752512
  0.2500773185695803  0.7221336081617354  0.6238568871873441
  0.7500064574687056  0.2221330403458908  0.6238514801194820
  0.7500099166598428  0.7221368470848555  0.6238524968569475
  0.0000171454285918  0.1250011912490707  0.6722418424631832
  0.5000116799196141  0.1250012059235131  0.6722435411630399
  0.5009728933275245  0.6249813047417939  0.6722554635340943
 -0.0084087422123577  0.6249607581231688  0.6736302597218179
  0.1671002690435625  0.6562884907617630  0.6930232241338081
 
  0.00000000E+00  0.00000000E+00  0.00000000E+00
  0.00000000E+00  0.00000000E+00  0.00000000E+00
  0.00000000E+00  0.00000000E+00  0.00000000E+00
  0.00000000E+00  0.00000000E+00  0.00000000E+00
  0.00000000E+00  0.00000000E+00  0.00000000E+00
  0.00000000E+00  0.00000000E+00  0.00000000E+00
  0.00000000E+00  0.00000000E+00  0.00000000E+00
  0.00000000E+00  0.00000000E+00  0.00000000E+00
  0.00000000E+00  0.00000000E+00  0.00000000E+00
  0.00000000E+00  0.00000000E+00  0.00000000E+00
  0.00000000E+00  0.00000000E+00  0.00000000E+00
  0.00000000E+00  0.00000000E+00  0.00000000E+00
  0.00000000E+00  0.00000000E+00  0.00000000E+00
  0.00000000E+00  0.00000000E+00  0.00000000E+00
  0.00000000E+00  0.00000000E+00  0.00000000E+00
  0.00000000E+00  0.00000000E+00  0.00000000E+00
  0.00000000E+00  0.00000000E+00  0.00000000E+00
  0.00000000E+00  0.00000000E+00  0.00000000E+00
  0.00000000E+00  0.00000000E+00  0.00000000E+00
  0.00000000E+00  0.00000000E+00  0.00000000E+00
  0.00000000E+00  0.00000000E+00  0.00000000E+00
  0.00000000E+00  0.00000000E+00  0.00000000E+00
  0.00000000E+00  0.00000000E+00  0.00000000E+00
  0.00000000E+00  0.00000000E+00  0.00000000E+00
  0.00000000E+00  0.00000000E+00  0.00000000E+00
  0.00000000E+00  0.00000000E+00  0.00000000E+00
  0.00000000E+00  0.00000000E+00  0.00000000E+00
  0.00000000E+00  0.00000000E+00  0.00000000E+00
  0.00000000E+00  0.00000000E+00  0.00000000E+00
  0.00000000E+00  0.00000000E+00  0.00000000E+00
  0.00000000E+00  0.00000000E+00  0.00000000E+00
  0.00000000E+00  0.00000000E+00  0.00000000E+00
  0.00000000E+00  0.00000000E+00  0.00000000E+00
  0.00000000E+00  0.00000000E+00  0.00000000E+00
  0.00000000E+00  0.00000000E+00  0.00000000E+00
  0.00000000E+00  0.00000000E+00  0.00000000E+00
  0.00000000E+00  0.00000000E+00  0.00000000E+00
  0.00000000E+00  0.00000000E+00  0.00000000E+00
  0.00000000E+00  0.00000000E+00  0.00000000E+00
  0.00000000E+00  0.00000000E+00  0.00000000E+00
  0.00000000E+00  0.00000000E+00  0.00000000E+00
  0.00000000E+00  0.00000000E+00  0.00000000E+00
  0.00000000E+00  0.00000000E+00  0.00000000E+00
  0.00000000E+00  0.00000000E+00  0.00000000E+00
  0.00000000E+00  0.00000000E+00  0.00000000E+00
  0.00000000E+00  0.00000000E+00  0.00000000E+00
  0.00000000E+00  0.00000000E+00  0.00000000E+00
  0.00000000E+00  0.00000000E+00  0.00000000E+00
  0.00000000E+00  0.00000000E+00  0.00000000E+00
  0.00000000E+00  0.00000000E+00  0.00000000E+00
  0.00000000E+00  0.00000000E+00  0.00000000E+00
  0.00000000E+00  0.00000000E+00  0.00000000E+00
  0.00000000E+00  0.00000000E+00  0.00000000E+00
  0.00000000E+00  0.00000000E+00  0.00000000E+00
  0.00000000E+00  0.00000000E+00  0.00000000E+00
  0.00000000E+00  0.00000000E+00  0.00000000E+00
  0.00000000E+00  0.00000000E+00  0.00000000E+00
  0.00000000E+00  0.00000000E+00  0.00000000E+00
  0.00000000E+00  0.00000000E+00  0.00000000E+00
  0.00000000E+00  0.00000000E+00  0.00000000E+00
  0.00000000E+00  0.00000000E+00  0.00000000E+00
  0.00000000E+00  0.00000000E+00  0.00000000E+00
  0.00000000E+00  0.00000000E+00  0.00000000E+00
  0.00000000E+00  0.00000000E+00  0.00000000E+00
  0.00000000E+00  0.00000000E+00  0.00000000E+00
  0.00000000E+00  0.00000000E+00  0.00000000E+00
  0.00000000E+00  0.00000000E+00  0.00000000E+00
  0.00000000E+00  0.00000000E+00  0.00000000E+00
  0.00000000E+00  0.00000000E+00  0.00000000E+00
  0.00000000E+00  0.00000000E+00  0.00000000E+00
  0.00000000E+00  0.00000000E+00  0.00000000E+00
  0.00000000E+00  0.00000000E+00  0.00000000E+00
  0.00000000E+00  0.00000000E+00  0.00000000E+00
  0.00000000E+00  0.00000000E+00  0.00000000E+00
  0.00000000E+00  0.00000000E+00  0.00000000E+00
  0.00000000E+00  0.00000000E+00  0.00000000E+00
  0.00000000E+00  0.00000000E+00  0.00000000E+00
  0.00000000E+00  0.00000000E+00  0.00000000E+00
  0.00000000E+00  0.00000000E+00  0.00000000E+00
  0.00000000E+00  0.00000000E+00  0.00000000E+00
  0.00000000E+00  0.00000000E+00  0.00000000E+00
  0.00000000E+00  0.00000000E+00  0.00000000E+00
  0.00000000E+00  0.00000000E+00  0.00000000E+00
  0.00000000E+00  0.00000000E+00  0.00000000E+00
  0.00000000E+00  0.00000000E+00  0.00000000E+00
  0.00000000E+00  0.00000000E+00  0.00000000E+00
  0.00000000E+00  0.00000000E+00  0.00000000E+00
  0.00000000E+00  0.00000000E+00  0.00000000E+00
  0.00000000E+00  0.00000000E+00  0.00000000E+00
  0.00000000E+00  0.00000000E+00  0.00000000E+00
  0.00000000E+00  0.00000000E+00  0.00000000E+00
  0.00000000E+00  0.00000000E+00  0.00000000E+00
  0.00000000E+00  0.00000000E+00  0.00000000E+00
  0.00000000E+00  0.00000000E+00  0.00000000E+00
  0.00000000E+00  0.00000000E+00  0.00000000E+00
  0.00000000E+00  0.00000000E+00  0.00000000E+00
  0.00000000E+00  0.00000000E+00  0.00000000E+00
  0.00000000E+00  0.00000000E+00  0.00000000E+00
  0.00000000E+00  0.00000000E+00  0.00000000E+00
  0.00000000E+00  0.00000000E+00  0.00000000E+00
  0.00000000E+00  0.00000000E+00  0.00000000E+00
  0.00000000E+00  0.00000000E+00  0.00000000E+00
