Ba10 Sr10 Co24 H1 O70                   
    1.000000000000000     
    11.1057150000000000    0.0000000000000000    0.0000000000000000
    -0.0047930000000000    5.5528550000000001    0.0000000000000000
     0.0000000000000000    0.0000000000000000   87.2902260000000041
   Ba   Sr   Co   H    O 
    10    10    24     1    70
Direct
  0.9967543764435935  0.0002530779494947  0.5553360188298901
  0.4998170409246740 -0.0002442907262112  0.5551019272485344
  0.2532197900478461  0.5014757810120826  0.6009136774447222
  0.7534055382222453  0.5016151771357438  0.6008107257456182
 -0.0002394564994192  0.9974471455607866  0.4636840386376029
  0.4996547164622103  0.9972821225181874  0.4636760578148466
  0.2492889892441262  0.4952507531980499  0.5095732376685550
  0.7487088877322540  0.4967034180965366  0.5095119074706773
  0.2493147074828637  0.4995136744522163  0.4167954217918821
  0.7490561038418695  0.4997105839527730  0.4167988391087000
  0.2487050218923183  0.4922263461592310  0.5553630792143407
  0.7492814549634086  0.4961711577359432  0.5553043396844464
  0.4997970530529429  0.0077729278443686  0.6010810115297196
  0.0001851645282350  0.0080301804246396  0.6011756387768851
  0.2526171590324922  0.4990463398073612  0.4633172982791189
  0.7485190225601828  0.4908340434563871  0.4633293815604447
  0.4995362229411640  0.9925394186441250  0.5089687369124770
  0.9996764071341461  0.9924970584949067  0.5089730290952116
  0.4997144524538770 -0.0006641210904841  0.4175438658294806
 -0.0002245831789808 -0.0006213457990534  0.4175429765973317
  0.2495036801306961  0.0071127714991297  0.6222312428766205
  0.7489011773890831  0.0095479600943061  0.6217713677341905
  0.0019813821301903  0.5113492934398487  0.6218656872989808
  0.5098659582781240  0.5141882174703420  0.6218258044268009
  0.9996100534373396  0.5095002410574767  0.5782220845861009
  0.4994676957068561  0.5097704280681775  0.5781563877164430
  0.2502434903674252  0.0082358299969933  0.5777699255270521
  0.7500920724895280  0.0079329322774683  0.5776559821116251
  0.2507367680317454  0.9927424533756692  0.5323311542798346
  0.7500176717012746  0.9993295740800952  0.5320549345325353
  0.9996182624890513  0.4990370725719964  0.5320278563217399
  0.4996441570263337  0.4990230095713297  0.5320286072421592
  0.9990374458001356  0.5062053836416556  0.4863408608017655
  0.4990028568629461  0.5059850109833096  0.4863634243835577
  0.2498556503345131 -0.0000855991650135  0.4866906020786163
  0.7498914708233687  0.9996289618919003  0.4866814638866303
  0.2509595420298535  0.9907380575879983  0.4408114534553923
  0.7512501579969223  0.9903843432073210  0.4407911761047345
 -0.0013885255138527  0.4901045695889373  0.4407307757245895
  0.4983963909932884  0.4898698771580386  0.4406786049994859
  0.9979936106651565  0.5107073724091649  0.3953181760858290
  0.4979873342537923  0.5107099478318512  0.3953126726801161
  0.2516438937828292  0.0107217422738744  0.3952771691482779
  0.7516414431715779  0.0107151310577976  0.3952751607593046
  0.3087474505386236  0.6840668857477027  0.6450737067049691
 -0.0000035244852540  0.4998816243942301  0.6004367346694151
  0.4999905416261758  0.4998586626680649  0.6004381291571192
  0.9953009233526334  0.4999042471987760  0.5531792258944327
  0.5046900943962460  0.5000303756475830  0.5531800725147805
  0.1309548489959991  0.7875432693731883  0.6224156338323823
  0.6309908056381054  0.7876188136650848  0.6229000299349006
  0.3811688775172004  0.7123756887070356  0.6229088200986157
  0.8810589637992100  0.7125309967763688  0.6229049523398297
  0.3690422930672101  0.2124659963990388  0.6228928874059094
  0.8690888351355519  0.2083119402718565  0.6227560610686542
  0.1188542634843201  0.2876139636529371  0.6229022153003219
  0.6190024249077211  0.2874466954949149  0.6229040304662298
  0.2499678863334922 -0.0000662043738614  0.5542859650799500
  0.7499707806739849 -0.0000446964535141  0.5542855657486898
  0.2500096794998759  0.0000540477837123  0.5995813407214362
  0.7499885782428654 -0.0000331774786597  0.5995671566595536
  0.3771869818219273  0.2802217073489240  0.5779933205938885
  0.8772191063263264  0.2801583585844557  0.5780215079632254
  0.1262545567632641  0.2248517245578034  0.5781150350922220
  0.6262612585934286  0.2248171880399999  0.5781171045972859
  0.1228290431782106  0.7198673295702508  0.5779833976817944
  0.6228301280194404  0.7198883222137825  0.5779964739625638
  0.3737455845111831  0.7751842287999843  0.5781158739505466
  0.8737331901418374  0.7751924486317309  0.5781181672632349
  0.9953087684559728  0.4999707264249472  0.5078628723692489
  0.4953124210635946  0.4999707032115961  0.5078638159211507
 -0.0000091642959660  0.4999211193113952  0.4644889492966254
  0.4999910730296273  0.4999182662906462  0.4644884706877865
  0.1379828230290645  0.7747623064974172  0.5327994351781991
  0.6380447938653416  0.7748880732815195  0.5327946040940124
  0.3880275319943884  0.7249842938057680  0.5327918918760605
  0.8880308261516162  0.7250222429429513  0.5327876774799262
  0.3619085588081731  0.2249609321947463  0.5327947608421076
  0.8619221689927952  0.2250337800111134  0.5327914426839204
  0.1119313050930403  0.2749851839151388  0.5327902918540812
  0.6119506312456136  0.2749310271161278  0.5327854038911864
  0.2499955024021079  0.9875274071005660  0.4635242143477807
  0.7499898053215167  0.9875333427267541  0.4635240638291879
  0.2499870986714970  0.9875685799823176  0.5088453867509491
  0.7499889974813333  0.9875818600697892  0.5088466110719354
  0.3927943836635346  0.2624629265124763  0.4869555992705692
  0.8927950267922371  0.2624637113575606  0.4869557005572523
  0.1428608894566434  0.2373854702362327  0.4864753987991541
  0.6428554294791198  0.2373867213150017  0.4864751654243013
  0.1072091394046344  0.7375543165323007  0.4869577412099450
  0.6072079360278291  0.7375539570290482  0.4869576996515836
  0.3571762288737185  0.7625050650181884  0.4864750721132128
  0.8571752044575075  0.7625061474489622  0.4864751795611594
 -0.0000144828368216  0.4999849009848770  0.4191300227861197
  0.4999941602014311  0.4999604161099720  0.4191282416814611
  0.1379830304726976  0.7748455457940757  0.4406224092356805
  0.6379843738997449  0.7748480591907743  0.4406223383745996
  0.3857837175974432  0.7248963953436873  0.4406317615901660
  0.8857905485129466  0.7248896875409667  0.4406310601800085
  0.3619452014756500  0.2249136554315027  0.4406266364927569
  0.8619433568725426  0.2249112366563834  0.4406266485815887
  0.1142559401938811  0.2748732978765158  0.4406354640035628
  0.6142456992090709  0.2748794581092329  0.4406342207508794
  0.2499809989682208 -0.0000603098245277  0.4167698846706857
  0.7499815892659868 -0.0000582754210875  0.4167698167069891
  0.3881725724935990  0.2751170460587409  0.3937623999795744
  0.8881728541520727  0.2751186055644512  0.3937624388082505
  0.1380601674515205  0.2248172093009225  0.3937517278522906
  0.6380686913400384  0.2248297748234210  0.3937529009773588
  0.1118250598322233  0.7249532481563316  0.3937609991375118
  0.6118248538592612  0.7249542171784070  0.3937609425343763
  0.3619092028161661  0.7752185808824618  0.3937539764438548
  0.8619152111244829  0.7752219755217445  0.3937548320937379
  0.2559505479065258  0.0125157109678598  0.6439285412039415
  0.2857550439865842  0.8165669354025745  0.6524370944484562
 
  0.00000000E+00  0.00000000E+00  0.00000000E+00
  0.00000000E+00  0.00000000E+00  0.00000000E+00
  0.00000000E+00  0.00000000E+00  0.00000000E+00
  0.00000000E+00  0.00000000E+00  0.00000000E+00
  0.00000000E+00  0.00000000E+00  0.00000000E+00
  0.00000000E+00  0.00000000E+00  0.00000000E+00
  0.00000000E+00  0.00000000E+00  0.00000000E+00
  0.00000000E+00  0.00000000E+00  0.00000000E+00
  0.00000000E+00  0.00000000E+00  0.00000000E+00
  0.00000000E+00  0.00000000E+00  0.00000000E+00
  0.00000000E+00  0.00000000E+00  0.00000000E+00
  0.00000000E+00  0.00000000E+00  0.00000000E+00
  0.00000000E+00  0.00000000E+00  0.00000000E+00
  0.00000000E+00  0.00000000E+00  0.00000000E+00
  0.00000000E+00  0.00000000E+00  0.00000000E+00
  0.00000000E+00  0.00000000E+00  0.00000000E+00
  0.00000000E+00  0.00000000E+00  0.00000000E+00
  0.00000000E+00  0.00000000E+00  0.00000000E+00
  0.00000000E+00  0.00000000E+00  0.00000000E+00
  0.00000000E+00  0.00000000E+00  0.00000000E+00
  0.00000000E+00  0.00000000E+00  0.00000000E+00
  0.00000000E+00  0.00000000E+00  0.00000000E+00
  0.00000000E+00  0.00000000E+00  0.00000000E+00
  0.00000000E+00  0.00000000E+00  0.00000000E+00
  0.00000000E+00  0.00000000E+00  0.00000000E+00
  0.00000000E+00  0.00000000E+00  0.00000000E+00
  0.00000000E+00  0.00000000E+00  0.00000000E+00
  0.00000000E+00  0.00000000E+00  0.00000000E+00
  0.00000000E+00  0.00000000E+00  0.00000000E+00
  0.00000000E+00  0.00000000E+00  0.00000000E+00
  0.00000000E+00  0.00000000E+00  0.00000000E+00
  0.00000000E+00  0.00000000E+00  0.00000000E+00
  0.00000000E+00  0.00000000E+00  0.00000000E+00
  0.00000000E+00  0.00000000E+00  0.00000000E+00
  0.00000000E+00  0.00000000E+00  0.00000000E+00
  0.00000000E+00  0.00000000E+00  0.00000000E+00
  0.00000000E+00  0.00000000E+00  0.00000000E+00
  0.00000000E+00  0.00000000E+00  0.00000000E+00
  0.00000000E+00  0.00000000E+00  0.00000000E+00
  0.00000000E+00  0.00000000E+00  0.00000000E+00
  0.00000000E+00  0.00000000E+00  0.00000000E+00
  0.00000000E+00  0.00000000E+00  0.00000000E+00
  0.00000000E+00  0.00000000E+00  0.00000000E+00
  0.00000000E+00  0.00000000E+00  0.00000000E+00
  0.00000000E+00  0.00000000E+00  0.00000000E+00
  0.00000000E+00  0.00000000E+00  0.00000000E+00
  0.00000000E+00  0.00000000E+00  0.00000000E+00
  0.00000000E+00  0.00000000E+00  0.00000000E+00
  0.00000000E+00  0.00000000E+00  0.00000000E+00
  0.00000000E+00  0.00000000E+00  0.00000000E+00
  0.00000000E+00  0.00000000E+00  0.00000000E+00
  0.00000000E+00  0.00000000E+00  0.00000000E+00
  0.00000000E+00  0.00000000E+00  0.00000000E+00
  0.00000000E+00  0.00000000E+00  0.00000000E+00
  0.00000000E+00  0.00000000E+00  0.00000000E+00
  0.00000000E+00  0.00000000E+00  0.00000000E+00
  0.00000000E+00  0.00000000E+00  0.00000000E+00
  0.00000000E+00  0.00000000E+00  0.00000000E+00
  0.00000000E+00  0.00000000E+00  0.00000000E+00
  0.00000000E+00  0.00000000E+00  0.00000000E+00
  0.00000000E+00  0.00000000E+00  0.00000000E+00
  0.00000000E+00  0.00000000E+00  0.00000000E+00
  0.00000000E+00  0.00000000E+00  0.00000000E+00
  0.00000000E+00  0.00000000E+00  0.00000000E+00
  0.00000000E+00  0.00000000E+00  0.00000000E+00
  0.00000000E+00  0.00000000E+00  0.00000000E+00
  0.00000000E+00  0.00000000E+00  0.00000000E+00
  0.00000000E+00  0.00000000E+00  0.00000000E+00
  0.00000000E+00  0.00000000E+00  0.00000000E+00
  0.00000000E+00  0.00000000E+00  0.00000000E+00
  0.00000000E+00  0.00000000E+00  0.00000000E+00
  0.00000000E+00  0.00000000E+00  0.00000000E+00
  0.00000000E+00  0.00000000E+00  0.00000000E+00
  0.00000000E+00  0.00000000E+00  0.00000000E+00
  0.00000000E+00  0.00000000E+00  0.00000000E+00
  0.00000000E+00  0.00000000E+00  0.00000000E+00
  0.00000000E+00  0.00000000E+00  0.00000000E+00
  0.00000000E+00  0.00000000E+00  0.00000000E+00
  0.00000000E+00  0.00000000E+00  0.00000000E+00
  0.00000000E+00  0.00000000E+00  0.00000000E+00
  0.00000000E+00  0.00000000E+00  0.00000000E+00
  0.00000000E+00  0.00000000E+00  0.00000000E+00
  0.00000000E+00  0.00000000E+00  0.00000000E+00
  0.00000000E+00  0.00000000E+00  0.00000000E+00
  0.00000000E+00  0.00000000E+00  0.00000000E+00
  0.00000000E+00  0.00000000E+00  0.00000000E+00
  0.00000000E+00  0.00000000E+00  0.00000000E+00
  0.00000000E+00  0.00000000E+00  0.00000000E+00
  0.00000000E+00  0.00000000E+00  0.00000000E+00
  0.00000000E+00  0.00000000E+00  0.00000000E+00
  0.00000000E+00  0.00000000E+00  0.00000000E+00
  0.00000000E+00  0.00000000E+00  0.00000000E+00
  0.00000000E+00  0.00000000E+00  0.00000000E+00
  0.00000000E+00  0.00000000E+00  0.00000000E+00
  0.00000000E+00  0.00000000E+00  0.00000000E+00
  0.00000000E+00  0.00000000E+00  0.00000000E+00
  0.00000000E+00  0.00000000E+00  0.00000000E+00
  0.00000000E+00  0.00000000E+00  0.00000000E+00
  0.00000000E+00  0.00000000E+00  0.00000000E+00
  0.00000000E+00  0.00000000E+00  0.00000000E+00
  0.00000000E+00  0.00000000E+00  0.00000000E+00
  0.00000000E+00  0.00000000E+00  0.00000000E+00
  0.00000000E+00  0.00000000E+00  0.00000000E+00
  0.00000000E+00  0.00000000E+00  0.00000000E+00
  0.00000000E+00  0.00000000E+00  0.00000000E+00
  0.00000000E+00  0.00000000E+00  0.00000000E+00
  0.00000000E+00  0.00000000E+00  0.00000000E+00
  0.00000000E+00  0.00000000E+00  0.00000000E+00
  0.00000000E+00  0.00000000E+00  0.00000000E+00
  0.00000000E+00  0.00000000E+00  0.00000000E+00
  0.00000000E+00  0.00000000E+00  0.00000000E+00
  0.00000000E+00  0.00000000E+00  0.00000000E+00
  0.00000000E+00  0.00000000E+00  0.00000000E+00
  0.00000000E+00  0.00000000E+00  0.00000000E+00
  0.00000000E+00  0.00000000E+00  0.00000000E+00
