H1 Ir32 O73                             
   1.00000000000000     
     9.0898780000000006    0.0000000000000000    0.0000000000000000
     0.0000000000000000   11.1045669999999994   -0.0793000000000000
     0.0000000000000000    0.0000000000000000   31.3300599999999996
   H    Ir   O 
     1    32    73
Direct
  0.1435034858711912  0.7855350056470914  0.6922564471248386
  0.2629216738580797  0.3287631548752568  0.3750610982167298
  0.2629460541661147  0.8289649459471181  0.3750913705820572
  0.7629867014625892  0.3289645318327642  0.3750970219534869
  0.7630122172809845  0.8288562845714511  0.3750750405233500
  0.9875697418697864  0.0791687876613141  0.3757054203303633
  0.9874924816631411  0.5791965022381208  0.3757076438205015
  0.4875184582029824  0.0791868785929868  0.3757309498810840
  0.4865004178894309  0.5796814719859366  0.3750159196658013
  0.2469011393984999  0.0014329986108934  0.4576809408101068
  0.2476578926835514  0.5021276166952034  0.4571461112737842
  0.7474645062458010  0.0019403724949161  0.4573680152877871
  0.7468400106002248  0.5014646441132545  0.4576344925377830
  0.0015205640819165  0.2529246371464630  0.4577697386090279
  0.0015307642567953  0.7528989282140474  0.4577457515228501
  0.5014375495869461  0.2528977724179771  0.4577825374714525
  0.5015739318407036  0.7528602091395168  0.4576971624310151
  0.2504253280346243  0.1670220551319374  0.5409964478722347
  0.2504387962639336  0.6669128565930622  0.5406799453172106
  0.7506702467410331  0.1672063944845432  0.5409914709630085
  0.7504808636574311  0.6670316014541837  0.5409814907612304
  0.0006454320444746  0.4167940813940355  0.5422943482895221
 -0.0017531855674237  0.9169135173730149  0.5422128268287192
  0.5003659000505678  0.4168757365108444  0.5422621847785902
  0.5014263355466242  0.9171078557156084  0.5422951230660888
  0.2477800211606486  0.3336184442310153  0.6276428417595579
  0.2479505959003094  0.8369648243997756  0.6235825258785506
  0.7478828048468253  0.3339030368989562  0.6275783697761989
  0.7479597835661410  0.8338500003983842  0.6275604014341243
  0.0056760380154661  0.0850159061686470  0.6269983876156054
  0.0056075884382848  0.5845437395863315  0.6270175483706025
  0.5061403452923063  0.0851044564155095  0.6270851667255436
  0.5055929197574893  0.5846406741423759  0.6270022978032406
  0.3464412288909064  0.1881344877054650  0.3510591816795967
  0.3461544556980804  0.6882281611983782  0.3509866980876706
  0.8464400144794061  0.1881526695076763  0.3510604743030742
  0.8464331914623994  0.6881489382541799  0.3510577513754815
  0.0955627676055942  0.2318560989622776  0.3993384935874842
  0.0955600671613545  0.7318575193954815  0.3993363646023841
  0.5955633993513405  0.2318586598237447  0.3993370855803787
  0.5955629748463432  0.7318607981933845  0.3993261275281990
  0.1528632478969262  0.4817755394179204  0.3993111271260019
  0.1528757501988929  0.9817747761809290  0.3993261073895449
  0.6527731505441892  0.4818251648865973  0.3993104262576441
  0.6528711132327665  0.9817809173112335  0.3993190709782026
  0.4021196307928072  0.4368504515741108  0.3503123182356530
  0.4032793931828858  0.9382137701965102  0.3510140654504580
  0.9032721276981882  0.4382153137175400  0.3510126138861648
  0.9032803861943588  0.9382156732154968  0.3510142327742444
  0.3424935409923439  0.3531729287994568  0.4339896958384656
  0.3425467571454377  0.8531750757296147  0.4339948363784941
  0.8425047347344969  0.3531753042750922  0.4339943610166802
  0.8425003319699228  0.8531758629881671  0.4339924783942462
  0.0957740113322628  0.4005184988288503  0.4845213051543137
  0.0957024557725375  0.9004896611367806  0.4845295928207927
  0.5957284706769050  0.4004977045079939  0.4845280822325272
  0.5957449733747523  0.9004906715363277  0.4845173938934550
  0.1528962957441294  0.1489926331498284  0.4840048891668144
  0.1528530957490109  0.6490086032433259  0.4839797845115024
  0.6528970404654605  0.1489998171013229  0.4840014330358460
  0.6528888819188264  0.6489888885947219  0.4840028691456490
  0.4044485132767702  0.1016870239633039  0.4340050118485783
  0.4041556943799997  0.6020155346842606  0.4334121662318845
  0.9044958932565202  0.1016979737567272  0.4339957069127232
  0.9044518348197182  0.6016863599622071  0.4340033683849147
  0.3459497787873437  0.0181681202103035  0.5161579078757016
  0.3457951872466019  0.5183496303567015  0.5155325215956833
  0.8458916691430252  0.0180775659172810  0.5161156821094238
  0.8459389554089838  0.5180514984215410  0.5161261969887275
  0.0959066771793125  0.0659240415071000  0.5666817927927633
  0.0959658169276230  0.5658948454130794  0.5666726091908758
  0.5959592294796277  0.0659695908411681  0.5666686273033845
  0.5959412005782917  0.5659192960056968  0.5666911681198823
  0.1569082572155879  0.3136260125669424  0.5660492787760409
  0.1565357857582311  0.8136699525118480  0.5659924946372884
  0.6568653073221667  0.3136305008087645  0.5660498768627924
  0.6569976061641717  0.8136241992202639  0.5660483920757725
  0.4044991723956040  0.2679691559567733  0.5159758879155792
  0.4045385042996757  0.7679853739777021  0.5159664387337802
  0.9045141077439620  0.2679776639232625  0.5159736094447250
  0.9044623883351487  0.7679219942095215  0.5159763859244387
  0.3449273315193351  0.1868078517559262  0.6001512298735627
  0.3435699693158321  0.6869315360709705  0.5994147745653973
  0.8449134478235769  0.1868274909599112  0.6001463196504120
  0.8449309918461605  0.6868331412616491  0.6001700557479742
  0.0959537877613209  0.2322191865827959  0.6492465222433507
  0.1042923597395907  0.7319349506203492  0.6493047303958654
  0.5959431434886459  0.2322529548202160  0.6492506932008697
  0.5959914289782643  0.7322936238658687  0.6492045481411454
  0.1519307892339473  0.4818774983158035  0.6475205508313480
  0.1533248630319676  0.9820816697169100  0.6465296240671058
  0.6500557703758667  0.4809649804636565  0.6480691232255481
  0.6532053365551542  0.9839157076425868  0.6470691805179186
  0.4023317675331375  0.4366803122866216  0.6001139398512304
  0.4071918997238841  0.9386243111450859  0.6009252294200748
  0.9023348945144838  0.4367013078251152  0.6001314906038934
  0.9023100026331277  0.9367107976658996  0.6001312090352703
  0.3432397542261658  0.3489901459237121  0.6784553622289563
  0.8432088353663850  0.3490074890193136  0.6784573007131067
  0.8433018426676434  0.8489804522699962  0.6784543957816006
  0.9068828977434774  0.0934508335100660  0.6761175329140154
  0.9068951518794243  0.5935515208288786  0.6761173235438673
  0.4068505931296754  0.0934755331840985  0.6761177106347939
  0.4068390163029372  0.5934919751189508  0.6761015157286598
  0.3387865614396281  0.8436325794377963  0.6811970248762378
  0.2321390896320138  0.8212723029784111  0.7105125887698085
 
  0.00000000E+00  0.00000000E+00  0.00000000E+00
  0.00000000E+00  0.00000000E+00  0.00000000E+00
  0.00000000E+00  0.00000000E+00  0.00000000E+00
  0.00000000E+00  0.00000000E+00  0.00000000E+00
  0.00000000E+00  0.00000000E+00  0.00000000E+00
  0.00000000E+00  0.00000000E+00  0.00000000E+00
  0.00000000E+00  0.00000000E+00  0.00000000E+00
  0.00000000E+00  0.00000000E+00  0.00000000E+00
  0.00000000E+00  0.00000000E+00  0.00000000E+00
  0.00000000E+00  0.00000000E+00  0.00000000E+00
  0.00000000E+00  0.00000000E+00  0.00000000E+00
  0.00000000E+00  0.00000000E+00  0.00000000E+00
  0.00000000E+00  0.00000000E+00  0.00000000E+00
  0.00000000E+00  0.00000000E+00  0.00000000E+00
  0.00000000E+00  0.00000000E+00  0.00000000E+00
  0.00000000E+00  0.00000000E+00  0.00000000E+00
  0.00000000E+00  0.00000000E+00  0.00000000E+00
  0.00000000E+00  0.00000000E+00  0.00000000E+00
  0.00000000E+00  0.00000000E+00  0.00000000E+00
  0.00000000E+00  0.00000000E+00  0.00000000E+00
  0.00000000E+00  0.00000000E+00  0.00000000E+00
  0.00000000E+00  0.00000000E+00  0.00000000E+00
  0.00000000E+00  0.00000000E+00  0.00000000E+00
  0.00000000E+00  0.00000000E+00  0.00000000E+00
  0.00000000E+00  0.00000000E+00  0.00000000E+00
  0.00000000E+00  0.00000000E+00  0.00000000E+00
  0.00000000E+00  0.00000000E+00  0.00000000E+00
  0.00000000E+00  0.00000000E+00  0.00000000E+00
  0.00000000E+00  0.00000000E+00  0.00000000E+00
  0.00000000E+00  0.00000000E+00  0.00000000E+00
  0.00000000E+00  0.00000000E+00  0.00000000E+00
  0.00000000E+00  0.00000000E+00  0.00000000E+00
  0.00000000E+00  0.00000000E+00  0.00000000E+00
  0.00000000E+00  0.00000000E+00  0.00000000E+00
  0.00000000E+00  0.00000000E+00  0.00000000E+00
  0.00000000E+00  0.00000000E+00  0.00000000E+00
  0.00000000E+00  0.00000000E+00  0.00000000E+00
  0.00000000E+00  0.00000000E+00  0.00000000E+00
  0.00000000E+00  0.00000000E+00  0.00000000E+00
  0.00000000E+00  0.00000000E+00  0.00000000E+00
  0.00000000E+00  0.00000000E+00  0.00000000E+00
  0.00000000E+00  0.00000000E+00  0.00000000E+00
  0.00000000E+00  0.00000000E+00  0.00000000E+00
  0.00000000E+00  0.00000000E+00  0.00000000E+00
  0.00000000E+00  0.00000000E+00  0.00000000E+00
  0.00000000E+00  0.00000000E+00  0.00000000E+00
  0.00000000E+00  0.00000000E+00  0.00000000E+00
  0.00000000E+00  0.00000000E+00  0.00000000E+00
  0.00000000E+00  0.00000000E+00  0.00000000E+00
  0.00000000E+00  0.00000000E+00  0.00000000E+00
  0.00000000E+00  0.00000000E+00  0.00000000E+00
  0.00000000E+00  0.00000000E+00  0.00000000E+00
  0.00000000E+00  0.00000000E+00  0.00000000E+00
  0.00000000E+00  0.00000000E+00  0.00000000E+00
  0.00000000E+00  0.00000000E+00  0.00000000E+00
  0.00000000E+00  0.00000000E+00  0.00000000E+00
  0.00000000E+00  0.00000000E+00  0.00000000E+00
  0.00000000E+00  0.00000000E+00  0.00000000E+00
  0.00000000E+00  0.00000000E+00  0.00000000E+00
  0.00000000E+00  0.00000000E+00  0.00000000E+00
  0.00000000E+00  0.00000000E+00  0.00000000E+00
  0.00000000E+00  0.00000000E+00  0.00000000E+00
  0.00000000E+00  0.00000000E+00  0.00000000E+00
  0.00000000E+00  0.00000000E+00  0.00000000E+00
  0.00000000E+00  0.00000000E+00  0.00000000E+00
  0.00000000E+00  0.00000000E+00  0.00000000E+00
  0.00000000E+00  0.00000000E+00  0.00000000E+00
  0.00000000E+00  0.00000000E+00  0.00000000E+00
  0.00000000E+00  0.00000000E+00  0.00000000E+00
  0.00000000E+00  0.00000000E+00  0.00000000E+00
  0.00000000E+00  0.00000000E+00  0.00000000E+00
  0.00000000E+00  0.00000000E+00  0.00000000E+00
  0.00000000E+00  0.00000000E+00  0.00000000E+00
  0.00000000E+00  0.00000000E+00  0.00000000E+00
  0.00000000E+00  0.00000000E+00  0.00000000E+00
  0.00000000E+00  0.00000000E+00  0.00000000E+00
  0.00000000E+00  0.00000000E+00  0.00000000E+00
  0.00000000E+00  0.00000000E+00  0.00000000E+00
  0.00000000E+00  0.00000000E+00  0.00000000E+00
  0.00000000E+00  0.00000000E+00  0.00000000E+00
  0.00000000E+00  0.00000000E+00  0.00000000E+00
  0.00000000E+00  0.00000000E+00  0.00000000E+00
  0.00000000E+00  0.00000000E+00  0.00000000E+00
  0.00000000E+00  0.00000000E+00  0.00000000E+00
  0.00000000E+00  0.00000000E+00  0.00000000E+00
  0.00000000E+00  0.00000000E+00  0.00000000E+00
  0.00000000E+00  0.00000000E+00  0.00000000E+00
  0.00000000E+00  0.00000000E+00  0.00000000E+00
  0.00000000E+00  0.00000000E+00  0.00000000E+00
  0.00000000E+00  0.00000000E+00  0.00000000E+00
  0.00000000E+00  0.00000000E+00  0.00000000E+00
  0.00000000E+00  0.00000000E+00  0.00000000E+00
  0.00000000E+00  0.00000000E+00  0.00000000E+00
  0.00000000E+00  0.00000000E+00  0.00000000E+00
  0.00000000E+00  0.00000000E+00  0.00000000E+00
  0.00000000E+00  0.00000000E+00  0.00000000E+00
  0.00000000E+00  0.00000000E+00  0.00000000E+00
  0.00000000E+00  0.00000000E+00  0.00000000E+00
  0.00000000E+00  0.00000000E+00  0.00000000E+00
  0.00000000E+00  0.00000000E+00  0.00000000E+00
  0.00000000E+00  0.00000000E+00  0.00000000E+00
  0.00000000E+00  0.00000000E+00  0.00000000E+00
  0.00000000E+00  0.00000000E+00  0.00000000E+00
  0.00000000E+00  0.00000000E+00  0.00000000E+00
  0.00000000E+00  0.00000000E+00  0.00000000E+00
  0.00000000E+00  0.00000000E+00  0.00000000E+00
