H8 Ir32 O72                             
   1.00000000000000     
     9.0898780000000006    0.0000000000000000    0.0000000000000000
     0.0000000000000000   11.1045669999999994   -0.0793000000000000
     0.0000000000000000    0.0000000000000000   31.3300599999999996
   H    Ir   O 
     8    32    72
Direct
  0.3616443113311762  0.2615385268427768  0.6904924757081555
  0.3616220539773989  0.7615523716560550  0.6904904375388687
  0.8616481774772493  0.2615402159482034  0.6904929171714771
  0.8616592455905833  0.7615440147010957  0.6904955226881669
  0.8826361079034570  0.0208434090634536  0.6911252861978077
  0.8826435456219601  0.5208416349206697  0.6911244624033395
  0.3823368986174052  0.0208425123366634  0.6911844189138983
  0.3826810394446245  0.5208348678162201  0.6911113659150787
  0.2642583065557044  0.3285070601201076  0.3749549378790511
  0.2642579975156093  0.8285060453628651  0.3749544776442917
  0.7642576953360073  0.3285064122144185  0.3749550519357571
  0.7642578012657084  0.8285074454799042  0.3749553503626709
  0.9909145929740794  0.0781800920191979  0.3748002627036161
  0.9909136954265096  0.5781793914326896  0.3748002375326576
  0.4909139515274425  0.0781795307621641  0.3748002852058102
  0.4909140898286254  0.5781798738698098  0.3748000606025365
  0.2487654444405929  0.0023083168593545  0.4571515706709282
  0.2487662882965681  0.5023062699604522  0.4571509601472808
  0.7487667518163109  0.0023086376810270  0.4571519716475315
  0.7487659789624286  0.5023071690557185  0.4571513763928938
  0.0027264020903195  0.2524499839992103  0.4574012510712289
  0.0027278646764004  0.7524498363195815  0.4574007103095299
  0.5027290461596817  0.2524486097436698  0.4574009474932269
  0.5027263738683889  0.7524511335534759  0.4574009687501819
  0.2511304253510405  0.1660185145096731  0.5413171677528085
  0.2511230656630827  0.6660207897789493  0.5413108493979373
  0.7511188270073708  0.1660214282912671  0.5413155048169188
  0.7511182552408500  0.6660267322903002  0.5413086224780264
  0.0004238769163372  0.4145381696681401  0.5418661996636577
  0.0004255742982113  0.9145391101569685  0.5418661011053725
  0.5004235074051958  0.4145367045819123  0.5418663249990531
  0.5004316791030848  0.9145475577456029  0.5418675310468950
  0.2402135397762248  0.3341347316691323  0.6262371929025742
  0.2401304555057717  0.8341556887921873  0.6262374874827182
  0.7401674738445717  0.3341362299361144  0.6262407916392387
  0.7402276763245862  0.8341219686271436  0.6262364813825266
  0.0064181603464296  0.0855604365363386  0.6262501977875445
  0.0064285188172057  0.5855457807524119  0.6262572538438071
  0.5064774137707037  0.0854224128081065  0.6263308847470849
  0.5064258274105780  0.5855652881472013  0.6262483438162958
  0.3500816924156464  0.1887088685486152  0.3510093118871488
  0.3500847191871735  0.6887115563602624  0.3510102008572331
  0.8500839241549311  0.1887112574817976  0.3510102228209045
  0.8500838994854276  0.6887099954537155  0.3510098505414992
  0.0960308862490880  0.2318416988934358  0.3992933643804576
  0.0960312601517252  0.7318415606121281  0.3992932941539171
  0.5960322544162063  0.2318418535603654  0.3992932932146880
  0.5960320687988800  0.7318416799251840  0.3992933206282431
  0.1533824104173048  0.4816210518260705  0.3992367178478037
  0.1533822670464313  0.9816211296713840  0.3992367575927750
  0.6533824173269658  0.4816211797464843  0.3992367697089989
  0.6533811763188344  0.9816207116565974  0.3992365497371873
  0.4043134341700949  0.4348935804555646  0.3493587575309330
  0.4043132442861566  0.9348937758468475  0.3493587914564008
  0.9043135372809775  0.4348934460540481  0.3493587653391170
  0.9043137738170504  0.9348932784843023  0.3493587166254704
  0.3429739733451928  0.3531891371560298  0.4339795608036203
  0.3429691894154007  0.8531881132333828  0.4339797079052749
  0.8429741011076094  0.3531891371594787  0.4339795700774982
  0.8429735344413846  0.8531891989480952  0.4339795881939175
  0.0958794169142861  0.4004803227008037  0.4844777807119650
  0.0958795438418987  0.9004804933926424  0.4844778262913068
  0.5958785580221277  0.4004792535604971  0.4844774592338065
  0.5958788422799194  0.9004802548248102  0.4844777113570379
  0.1540224665474106  0.1490005600097570  0.4838645871018411
  0.1539980639805849  0.6490042305338990  0.4838640268791490
  0.6539993175822798  0.1490047497947752  0.4838641051852250
  0.6540188280462442  0.6490000485813254  0.4838646578491214
  0.4044520544751650  0.1019998129333735  0.4333010403743164
  0.4044495013237726  0.6019980113972115  0.4333015558712424
  0.9044496238718366  0.1019982630822980  0.4333016159093359
  0.9044528888109844  0.6020009311136405  0.4333019492217431
  0.3469428170113872  0.0179309780855114  0.5159339460514365
  0.3469426299610490  0.5179314185657317  0.5159337294152575
  0.8469420648759859  0.0179315626326549  0.5159338279570550
  0.8469362001705091  0.5179324719488478  0.5159329061012474
  0.0960764130878538  0.0651248992061984  0.5666817386930455
  0.0960746988489091  0.5651219078148378  0.5666823294944436
  0.5960720062433359  0.0651185152472245  0.5666841004277094
  0.5960760199238967  0.5651220659219598  0.5666813298453804
  0.1569599811009231  0.3136177556965080  0.5660230506373742
  0.1569486372788917  0.8136163346574559  0.5660232333335452
  0.6569522927744254  0.3136166689999865  0.5660232172528796
  0.6569472813558845  0.8136166124138722  0.5660231305886807
  0.4044048512826183  0.2662961883822109  0.5154683788671708
  0.4044081342636749  0.7662990771406912  0.5154697826845573
  0.9044080144184403  0.2662997952790814  0.5154701044952511
  0.9044052922427802  0.7662962630851122  0.5154681938596718
  0.3430903149306618  0.1865369405703496  0.6006309736495462
  0.3430787430260919  0.6865363990873796  0.6006307323135618
  0.8430819343733456  0.1865365469553619  0.6006307140787056
  0.8430907178136222  0.6865320151461323  0.6006299562861772
  0.0957686110588130  0.2319125863139350  0.6492600019589577
  0.0957653600540821  0.7319108908094929  0.6492605832477529
  0.5957644931539718  0.2319088993674165  0.6492617102617804
  0.5957672382420491  0.7319129983526249  0.6492601122874289
  0.1501260395774815  0.4832654006140636  0.6477422866281574
  0.1501282785133336  0.9832654403357304  0.6477421671692575
  0.6501259413619690  0.4832680672612401  0.6477422853302388
  0.6501317354373356  0.9832649521964795  0.6477429560748924
  0.4044815494735992  0.4349488701771188  0.6006138282370169
  0.4044797976197134  0.9349478845708652  0.6006149026302516
  0.9044808947449268  0.4349483037090279  0.6006141992212458
  0.9044812870083763  0.9349496793835337  0.6006137392830877
  0.3389841993018863  0.3457626795399984  0.6811835588287888
  0.3388777739591156  0.8458618249958082  0.6811871063469747
  0.8389685843141255  0.3457687824264775  0.6811843106286343
  0.8389739110943546  0.8457639326671023  0.6811846890355583
  0.9071582621810335  0.1022984742148020  0.6810876894069665
  0.9071552347050480  0.6022993143270398  0.6810881474292186
  0.4071520002931866  0.1022965399651510  0.6810904867286161
  0.4071589559068883  0.6022970129260303  0.6810881941949288
 
  0.00000000E+00  0.00000000E+00  0.00000000E+00
  0.00000000E+00  0.00000000E+00  0.00000000E+00
  0.00000000E+00  0.00000000E+00  0.00000000E+00
  0.00000000E+00  0.00000000E+00  0.00000000E+00
  0.00000000E+00  0.00000000E+00  0.00000000E+00
  0.00000000E+00  0.00000000E+00  0.00000000E+00
  0.00000000E+00  0.00000000E+00  0.00000000E+00
  0.00000000E+00  0.00000000E+00  0.00000000E+00
  0.00000000E+00  0.00000000E+00  0.00000000E+00
  0.00000000E+00  0.00000000E+00  0.00000000E+00
  0.00000000E+00  0.00000000E+00  0.00000000E+00
  0.00000000E+00  0.00000000E+00  0.00000000E+00
  0.00000000E+00  0.00000000E+00  0.00000000E+00
  0.00000000E+00  0.00000000E+00  0.00000000E+00
  0.00000000E+00  0.00000000E+00  0.00000000E+00
  0.00000000E+00  0.00000000E+00  0.00000000E+00
  0.00000000E+00  0.00000000E+00  0.00000000E+00
  0.00000000E+00  0.00000000E+00  0.00000000E+00
  0.00000000E+00  0.00000000E+00  0.00000000E+00
  0.00000000E+00  0.00000000E+00  0.00000000E+00
  0.00000000E+00  0.00000000E+00  0.00000000E+00
  0.00000000E+00  0.00000000E+00  0.00000000E+00
  0.00000000E+00  0.00000000E+00  0.00000000E+00
  0.00000000E+00  0.00000000E+00  0.00000000E+00
  0.00000000E+00  0.00000000E+00  0.00000000E+00
  0.00000000E+00  0.00000000E+00  0.00000000E+00
  0.00000000E+00  0.00000000E+00  0.00000000E+00
  0.00000000E+00  0.00000000E+00  0.00000000E+00
  0.00000000E+00  0.00000000E+00  0.00000000E+00
  0.00000000E+00  0.00000000E+00  0.00000000E+00
  0.00000000E+00  0.00000000E+00  0.00000000E+00
  0.00000000E+00  0.00000000E+00  0.00000000E+00
  0.00000000E+00  0.00000000E+00  0.00000000E+00
  0.00000000E+00  0.00000000E+00  0.00000000E+00
  0.00000000E+00  0.00000000E+00  0.00000000E+00
  0.00000000E+00  0.00000000E+00  0.00000000E+00
  0.00000000E+00  0.00000000E+00  0.00000000E+00
  0.00000000E+00  0.00000000E+00  0.00000000E+00
  0.00000000E+00  0.00000000E+00  0.00000000E+00
  0.00000000E+00  0.00000000E+00  0.00000000E+00
  0.00000000E+00  0.00000000E+00  0.00000000E+00
  0.00000000E+00  0.00000000E+00  0.00000000E+00
  0.00000000E+00  0.00000000E+00  0.00000000E+00
  0.00000000E+00  0.00000000E+00  0.00000000E+00
  0.00000000E+00  0.00000000E+00  0.00000000E+00
  0.00000000E+00  0.00000000E+00  0.00000000E+00
  0.00000000E+00  0.00000000E+00  0.00000000E+00
  0.00000000E+00  0.00000000E+00  0.00000000E+00
  0.00000000E+00  0.00000000E+00  0.00000000E+00
  0.00000000E+00  0.00000000E+00  0.00000000E+00
  0.00000000E+00  0.00000000E+00  0.00000000E+00
  0.00000000E+00  0.00000000E+00  0.00000000E+00
  0.00000000E+00  0.00000000E+00  0.00000000E+00
  0.00000000E+00  0.00000000E+00  0.00000000E+00
  0.00000000E+00  0.00000000E+00  0.00000000E+00
  0.00000000E+00  0.00000000E+00  0.00000000E+00
  0.00000000E+00  0.00000000E+00  0.00000000E+00
  0.00000000E+00  0.00000000E+00  0.00000000E+00
  0.00000000E+00  0.00000000E+00  0.00000000E+00
  0.00000000E+00  0.00000000E+00  0.00000000E+00
  0.00000000E+00  0.00000000E+00  0.00000000E+00
  0.00000000E+00  0.00000000E+00  0.00000000E+00
  0.00000000E+00  0.00000000E+00  0.00000000E+00
  0.00000000E+00  0.00000000E+00  0.00000000E+00
  0.00000000E+00  0.00000000E+00  0.00000000E+00
  0.00000000E+00  0.00000000E+00  0.00000000E+00
  0.00000000E+00  0.00000000E+00  0.00000000E+00
  0.00000000E+00  0.00000000E+00  0.00000000E+00
  0.00000000E+00  0.00000000E+00  0.00000000E+00
  0.00000000E+00  0.00000000E+00  0.00000000E+00
  0.00000000E+00  0.00000000E+00  0.00000000E+00
  0.00000000E+00  0.00000000E+00  0.00000000E+00
  0.00000000E+00  0.00000000E+00  0.00000000E+00
  0.00000000E+00  0.00000000E+00  0.00000000E+00
  0.00000000E+00  0.00000000E+00  0.00000000E+00
  0.00000000E+00  0.00000000E+00  0.00000000E+00
  0.00000000E+00  0.00000000E+00  0.00000000E+00
  0.00000000E+00  0.00000000E+00  0.00000000E+00
  0.00000000E+00  0.00000000E+00  0.00000000E+00
  0.00000000E+00  0.00000000E+00  0.00000000E+00
  0.00000000E+00  0.00000000E+00  0.00000000E+00
  0.00000000E+00  0.00000000E+00  0.00000000E+00
  0.00000000E+00  0.00000000E+00  0.00000000E+00
  0.00000000E+00  0.00000000E+00  0.00000000E+00
  0.00000000E+00  0.00000000E+00  0.00000000E+00
  0.00000000E+00  0.00000000E+00  0.00000000E+00
  0.00000000E+00  0.00000000E+00  0.00000000E+00
  0.00000000E+00  0.00000000E+00  0.00000000E+00
  0.00000000E+00  0.00000000E+00  0.00000000E+00
  0.00000000E+00  0.00000000E+00  0.00000000E+00
  0.00000000E+00  0.00000000E+00  0.00000000E+00
  0.00000000E+00  0.00000000E+00  0.00000000E+00
  0.00000000E+00  0.00000000E+00  0.00000000E+00
  0.00000000E+00  0.00000000E+00  0.00000000E+00
  0.00000000E+00  0.00000000E+00  0.00000000E+00
  0.00000000E+00  0.00000000E+00  0.00000000E+00
  0.00000000E+00  0.00000000E+00  0.00000000E+00
  0.00000000E+00  0.00000000E+00  0.00000000E+00
  0.00000000E+00  0.00000000E+00  0.00000000E+00
  0.00000000E+00  0.00000000E+00  0.00000000E+00
  0.00000000E+00  0.00000000E+00  0.00000000E+00
  0.00000000E+00  0.00000000E+00  0.00000000E+00
  0.00000000E+00  0.00000000E+00  0.00000000E+00
  0.00000000E+00  0.00000000E+00  0.00000000E+00
  0.00000000E+00  0.00000000E+00  0.00000000E+00
  0.00000000E+00  0.00000000E+00  0.00000000E+00
  0.00000000E+00  0.00000000E+00  0.00000000E+00
  0.00000000E+00  0.00000000E+00  0.00000000E+00
  0.00000000E+00  0.00000000E+00  0.00000000E+00
  0.00000000E+00  0.00000000E+00  0.00000000E+00
  0.00000000E+00  0.00000000E+00  0.00000000E+00
  0.00000000E+00  0.00000000E+00  0.00000000E+00
