Ir32 O68                                
   1.00000000000000     
     6.3790139999999997    0.0000000000000000    0.0000000000000000
     0.0000000000000000   12.8550290000000000    0.0000000000000000
     0.0000000000000000    0.0000000000000000   38.5650860000000009
   Ir   O 
    32    68
Direct
  0.2499999353605354  0.1250006879642204  0.3734803553358204
  0.2499999373058654  0.6249998960308865  0.3734806572084896
  0.7500000654399196  0.1250006886034986  0.3734803631212853
  0.7500000623495989  0.6249998969165157  0.3734806541984380
  0.0000000071271117  0.3750000965484551  0.3761494552168380
  0.0000000069487062  0.8750007883873594  0.3761505555301484
  0.4999999928437634  0.3750000990366084  0.3761495655661517
  0.4999999929979909  0.8750008276516531  0.3761492966470142
  0.2500000028293334  0.3750001431690470  0.4579205136265602
  0.2500001063715261  0.8750002044458385  0.4579206777964542
  0.7499999966175919  0.3750001363703128  0.4579205144769269
  0.7499998943204178  0.8750002074751289  0.4579206767621729
  0.0000000604414399  0.1250003952512417  0.4578924059760772
  0.0000000651949498  0.6249999371855407  0.4578925505790789
  0.4999999394987929  0.1250003993330182  0.4578924098856668
  0.4999999347746346  0.6249999355442440  0.4578925533791653
  0.2500000679792551  0.1249997362251253  0.5412061204012322
  0.2500001072451919  0.6250005482283421  0.5412061004816242
  0.7499999315437775  0.1249997425074273  0.5412061320258906
  0.7499998937728651  0.6250005611511903  0.5412061098485242
  0.0000002364137819  0.3750001076715065  0.5419195466365744
  0.0000001222634868  0.8750001251178985  0.5419198769858893
  0.4999997653279215  0.3750001023823791  0.5419195267867757
  0.4999998778260553  0.8750001327594327  0.5419199162025331
  0.2499999780937255  0.3750001515955862  0.6262539812873381
  0.2500000397019272  0.8750002051366637  0.6262549077270008
  0.7500000222409701  0.3749990877772357  0.6262536371813275
  0.7499999604114346  0.8750001512573391  0.6262549264906556
  0.0000002077172005  0.1250008624536192  0.6262052302401613
  0.0000000768601926  0.6249987409535849  0.6262052906297315
  0.4999997924290851  0.1250008545880314  0.6262052154785674
  0.4999999232264484  0.6249987489139113  0.6262052629687499
 -0.0000000051924884  0.1249998693348137  0.3423399766857720
  0.0000000003476344  0.6249998607039692  0.3423399876005856
  0.5000000053625062  0.1249998634170350  0.3423399768969620
  0.4999999998207997  0.6249998662872860  0.3423399876487364
  0.2500000263956972  0.2771387381853336  0.3749459533174874
  0.2499999349459161  0.7771388350986208  0.3749459614347194
  0.7499999737634633  0.2771387160130518  0.3749459553931219
  0.7500000648604286  0.7771388359049174  0.3749459612205910
  0.0000000252053992  0.1249998756451831  0.4075591384929494
 -0.0000000255130961  0.6249998980152206  0.4075591615084294
  0.4999999752657028  0.1249998743787014  0.4075591384631007
  0.5000000251724417  0.6249998999598239  0.4075591619356321
  0.2500000233301951  0.4728610828990354  0.3749459612329247
  0.2499999052950549  0.9728610508860632  0.3749459610687320
  0.7499999767815730  0.4728610819397696  0.3749459609790347
  0.7500000950635670  0.9728610736692087  0.3749459631922641
 -0.0000000226902189  0.3749998712481026  0.4257084716365749
 -0.0000000228414858  0.8749998663323412  0.4257085102544349
  0.5000000235399950  0.3749998712938941  0.4257085102790614
  0.5000000212793930  0.8749998649750810  0.4257083853538181
  0.2500000175841298  0.0271448390563829  0.4583059650321995
  0.2499999971643136  0.5271450612732766  0.4583059652861896
  0.7499999824314307  0.0271447554066454  0.4583059701545506
  0.7500000030504329  0.5271449712848528  0.4583059709756205
  0.0000001598544920  0.3749998782501235  0.4909369615009840
  0.0000001465758356  0.8749998807873658  0.4909369126384408
  0.4999998407447630  0.3749998781657171  0.4909369438742276
  0.4999998522919969  0.8749998807846314  0.4909369451898476
  0.2499999973147025  0.2228547571696720  0.4583059663807222
  0.2500000174501040  0.7228549984507852  0.4583059700975854
  0.7500000028141879  0.2228548419416630  0.4583059716021111
  0.7499999827298178  0.7228550864375634  0.4583059756453477
 -0.0000000005850107  0.1249998454249009  0.5090077560565857
  0.0000000142447092  0.6249999002336405  0.5090077555040109
  0.5000000004863262  0.1249998466298521  0.5090077563190011
  0.4999999862359942  0.6249998985604358  0.5090077506669733
  0.2499999936459260  0.2771349003471100  0.5416437697784340
  0.2500000299336452  0.7771350285987317  0.5416437726352850
  0.7500000068273697  0.2771348954193305  0.5416437700041983
  0.7499999718760324  0.7771348742110393  0.5416437787840394
  0.0000001327166914  0.1249998511774535  0.5742531962462657
 -0.0000002225216988  0.6249999216091432  0.5742531910641897
  0.4999998679166893  0.1249998513671659  0.5742531975883040
  0.5000002160497629  0.6249999215474888  0.5742531936667951
  0.2499999948968382  0.4728648673280321  0.5416437690488974
  0.2500000270835479  0.9728648621987847  0.5416437779764434
  0.7500000043412479  0.4728650222141031  0.5416437743590695
  0.7499999732182498  0.9728648649183229  0.5416437776272641
 -0.0000000475044696  0.3749998735638048  0.5923790816041963
 -0.0000000192869471  0.8749998738062362  0.5923790947091123
  0.5000000479808510  0.3749998729218147  0.5923791037521267
  0.5000000194573269  0.8749998744203435  0.5923790541884814
  0.2499999981105558  0.0278762735159222  0.6238449814981017
  0.2499999915285614  0.5278774463368419  0.6238444529612095
  0.7500000021383945  0.0278765210916585  0.6238449855000194
  0.7500000083505232  0.5278774065460000  0.6238444460515600
  0.0000007314257574  0.3749998680009932  0.6576009254251324
  0.0000003317921112  0.8749998718503896  0.6576009006336030
  0.4999992683581096  0.3749998680064950  0.6576009242309294
  0.4999996676781946  0.8749998718713333  0.6576009030402153
  0.2499999963525940  0.2221227857144281  0.6238444879637914
  0.2499999938473499  0.7221238851457477  0.6238450350324469
  0.7500000033160590  0.2221240959511335  0.6238449751463440
  0.7500000061670580  0.7221238955545730  0.6238450331952964
 -0.0000000278458858  0.1249998035653690  0.6722257677191912
  0.0000000065896143  0.6249999164700991  0.6722257352264128
  0.5000000280121444  0.1249998037336542  0.6722257792072089
  0.4999999934915946  0.6249999163186527  0.6722257559372466
 
  0.00000000E+00  0.00000000E+00  0.00000000E+00
  0.00000000E+00  0.00000000E+00  0.00000000E+00
  0.00000000E+00  0.00000000E+00  0.00000000E+00
  0.00000000E+00  0.00000000E+00  0.00000000E+00
  0.00000000E+00  0.00000000E+00  0.00000000E+00
  0.00000000E+00  0.00000000E+00  0.00000000E+00
  0.00000000E+00  0.00000000E+00  0.00000000E+00
  0.00000000E+00  0.00000000E+00  0.00000000E+00
  0.00000000E+00  0.00000000E+00  0.00000000E+00
  0.00000000E+00  0.00000000E+00  0.00000000E+00
  0.00000000E+00  0.00000000E+00  0.00000000E+00
  0.00000000E+00  0.00000000E+00  0.00000000E+00
  0.00000000E+00  0.00000000E+00  0.00000000E+00
  0.00000000E+00  0.00000000E+00  0.00000000E+00
  0.00000000E+00  0.00000000E+00  0.00000000E+00
  0.00000000E+00  0.00000000E+00  0.00000000E+00
  0.00000000E+00  0.00000000E+00  0.00000000E+00
  0.00000000E+00  0.00000000E+00  0.00000000E+00
  0.00000000E+00  0.00000000E+00  0.00000000E+00
  0.00000000E+00  0.00000000E+00  0.00000000E+00
  0.00000000E+00  0.00000000E+00  0.00000000E+00
  0.00000000E+00  0.00000000E+00  0.00000000E+00
  0.00000000E+00  0.00000000E+00  0.00000000E+00
  0.00000000E+00  0.00000000E+00  0.00000000E+00
  0.00000000E+00  0.00000000E+00  0.00000000E+00
  0.00000000E+00  0.00000000E+00  0.00000000E+00
  0.00000000E+00  0.00000000E+00  0.00000000E+00
  0.00000000E+00  0.00000000E+00  0.00000000E+00
  0.00000000E+00  0.00000000E+00  0.00000000E+00
  0.00000000E+00  0.00000000E+00  0.00000000E+00
  0.00000000E+00  0.00000000E+00  0.00000000E+00
  0.00000000E+00  0.00000000E+00  0.00000000E+00
  0.00000000E+00  0.00000000E+00  0.00000000E+00
  0.00000000E+00  0.00000000E+00  0.00000000E+00
  0.00000000E+00  0.00000000E+00  0.00000000E+00
  0.00000000E+00  0.00000000E+00  0.00000000E+00
  0.00000000E+00  0.00000000E+00  0.00000000E+00
  0.00000000E+00  0.00000000E+00  0.00000000E+00
  0.00000000E+00  0.00000000E+00  0.00000000E+00
  0.00000000E+00  0.00000000E+00  0.00000000E+00
  0.00000000E+00  0.00000000E+00  0.00000000E+00
  0.00000000E+00  0.00000000E+00  0.00000000E+00
  0.00000000E+00  0.00000000E+00  0.00000000E+00
  0.00000000E+00  0.00000000E+00  0.00000000E+00
  0.00000000E+00  0.00000000E+00  0.00000000E+00
  0.00000000E+00  0.00000000E+00  0.00000000E+00
  0.00000000E+00  0.00000000E+00  0.00000000E+00
  0.00000000E+00  0.00000000E+00  0.00000000E+00
  0.00000000E+00  0.00000000E+00  0.00000000E+00
  0.00000000E+00  0.00000000E+00  0.00000000E+00
  0.00000000E+00  0.00000000E+00  0.00000000E+00
  0.00000000E+00  0.00000000E+00  0.00000000E+00
  0.00000000E+00  0.00000000E+00  0.00000000E+00
  0.00000000E+00  0.00000000E+00  0.00000000E+00
  0.00000000E+00  0.00000000E+00  0.00000000E+00
  0.00000000E+00  0.00000000E+00  0.00000000E+00
  0.00000000E+00  0.00000000E+00  0.00000000E+00
  0.00000000E+00  0.00000000E+00  0.00000000E+00
  0.00000000E+00  0.00000000E+00  0.00000000E+00
  0.00000000E+00  0.00000000E+00  0.00000000E+00
  0.00000000E+00  0.00000000E+00  0.00000000E+00
  0.00000000E+00  0.00000000E+00  0.00000000E+00
  0.00000000E+00  0.00000000E+00  0.00000000E+00
  0.00000000E+00  0.00000000E+00  0.00000000E+00
  0.00000000E+00  0.00000000E+00  0.00000000E+00
  0.00000000E+00  0.00000000E+00  0.00000000E+00
  0.00000000E+00  0.00000000E+00  0.00000000E+00
  0.00000000E+00  0.00000000E+00  0.00000000E+00
  0.00000000E+00  0.00000000E+00  0.00000000E+00
  0.00000000E+00  0.00000000E+00  0.00000000E+00
  0.00000000E+00  0.00000000E+00  0.00000000E+00
  0.00000000E+00  0.00000000E+00  0.00000000E+00
  0.00000000E+00  0.00000000E+00  0.00000000E+00
  0.00000000E+00  0.00000000E+00  0.00000000E+00
  0.00000000E+00  0.00000000E+00  0.00000000E+00
  0.00000000E+00  0.00000000E+00  0.00000000E+00
  0.00000000E+00  0.00000000E+00  0.00000000E+00
  0.00000000E+00  0.00000000E+00  0.00000000E+00
  0.00000000E+00  0.00000000E+00  0.00000000E+00
  0.00000000E+00  0.00000000E+00  0.00000000E+00
  0.00000000E+00  0.00000000E+00  0.00000000E+00
  0.00000000E+00  0.00000000E+00  0.00000000E+00
  0.00000000E+00  0.00000000E+00  0.00000000E+00
  0.00000000E+00  0.00000000E+00  0.00000000E+00
  0.00000000E+00  0.00000000E+00  0.00000000E+00
  0.00000000E+00  0.00000000E+00  0.00000000E+00
  0.00000000E+00  0.00000000E+00  0.00000000E+00
  0.00000000E+00  0.00000000E+00  0.00000000E+00
  0.00000000E+00  0.00000000E+00  0.00000000E+00
  0.00000000E+00  0.00000000E+00  0.00000000E+00
  0.00000000E+00  0.00000000E+00  0.00000000E+00
  0.00000000E+00  0.00000000E+00  0.00000000E+00
  0.00000000E+00  0.00000000E+00  0.00000000E+00
  0.00000000E+00  0.00000000E+00  0.00000000E+00
  0.00000000E+00  0.00000000E+00  0.00000000E+00
  0.00000000E+00  0.00000000E+00  0.00000000E+00
  0.00000000E+00  0.00000000E+00  0.00000000E+00
  0.00000000E+00  0.00000000E+00  0.00000000E+00
  0.00000000E+00  0.00000000E+00  0.00000000E+00
  0.00000000E+00  0.00000000E+00  0.00000000E+00
