Ir32 O72                                
   1.00000000000000     
     9.0898780000000006    0.0000000000000000    0.0000000000000000
     0.0000000000000000   11.1045669999999994   -0.0793000000000000
     0.0000000000000000    0.0000000000000000   31.3300599999999996
   Ir   O 
    32    72
Direct
  0.2631249292591806  0.3288111639203273  0.3750818475969758
  0.2631429922107155  0.8288255856704514  0.3750909025539366
  0.7631376989173901  0.3288249490658657  0.3750876676268461
  0.7631276820831395  0.8288389405517175  0.3750882160800189
  0.9876396295655893  0.0789826946072377  0.3756285357655991
  0.9876229046029547  0.5790063602828199  0.3755977670618521
  0.4876529346477930  0.0789888551108026  0.3756328015039230
  0.4878648152277084  0.5789329921194665  0.3755034502706392
  0.2481090221272544  0.0023004549490293  0.4574346267657719
  0.2479163652133097  0.5022633396486180  0.4572302958015642
  0.7480979140709014  0.0022870394920319  0.4574300898977371
  0.7481262634723361  0.5023087518944721  0.4574325419513739
  0.0016968676953316  0.2529830964449617  0.4577741737660208
  0.0016927648591006  0.7529867057076320  0.4577684512537653
  0.5016976219336223  0.2529898615348659  0.4577772108845751
  0.5017476595774941  0.7529505921651528  0.4577316878873172
  0.2509219724187545  0.1670468446121957  0.5410870736226197
  0.2507036002345110  0.6672129295985582  0.5409467002699287
  0.7508885720431657  0.1670762150006418  0.5410745272839786
  0.7509051103099896  0.6670494040221554  0.5410873977386615
  0.0010233073772682  0.4166655435301477  0.5423052665307633
  0.0010060252209067  0.9166665529469695  0.5423086912297579
  0.5006147307542249  0.4168853683185215  0.5422557000542234
  0.5010072663708233  0.9166528558522856  0.5423082591741601
  0.2478052297952092  0.3340326745082965  0.6277547324724941
  0.2478144115880485  0.8340130336847630  0.6277499249183017
  0.7477867327364013  0.3340264864328196  0.6277546731086797
  0.7477681838830487  0.8339965926255355  0.6277642558894821
  0.0055820853956992  0.0849920292554384  0.6270573318618354
  0.0055935273250851  0.5849908077913691  0.6270542413657405
  0.5055862261404593  0.0849875108922581  0.6270536900672903
  0.5055747620187738  0.5849830863916214  0.6270514901187981
  0.3465336020620829  0.1881350484437476  0.3510773416143201
  0.3464773672605334  0.6881480729939462  0.3510655649182300
  0.8465302761927441  0.1881369864985857  0.3510769143554394
  0.8464807921026533  0.6881474881844877  0.3510689550044766
  0.0956041474886767  0.2318757529150023  0.3993399602725715
  0.0956017323585973  0.7318760462958390  0.3993397753245299
  0.5956036555082388  0.2318766303404783  0.3993403696504460
  0.5956160241145264  0.7318800609940578  0.3993368571725447
  0.1528983183198874  0.4817813777925604  0.3993148625643987
  0.1529170754752764  0.9817862698765746  0.3993221898809237
  0.6529233428613498  0.4817850504176736  0.3993207035344910
  0.6529161346899940  0.9817872730041508  0.3993224188139551
  0.4027953187095886  0.4370065814896705  0.3505206612058073
  0.4028120325653747  0.9370926840224123  0.3505492829541260
  0.9028097049704271  0.4370476743776814  0.3505332704376685
  0.9028102778850152  0.9370853551098032  0.3505465629818052
  0.3425999049213140  0.3531888734804864  0.4339949548890484
  0.3426129003839941  0.8531927358595142  0.4339970680681697
  0.8426128779668336  0.3531915345718701  0.4339972466153411
  0.8426108564531902  0.8531920950502572  0.4339970818050895
  0.0958120426938503  0.4005389724429019  0.4845244685938900
  0.0958094775887472  0.9005388148907169  0.4845265998859586
  0.5958065682830840  0.4005409382721781  0.4845264762272802
  0.5958021338195313  0.9005359049178481  0.4845290174425848
  0.1530986570492353  0.1490522528852938  0.4840090930886249
  0.1529944009996147  0.6490274750356382  0.4839999818890724
  0.6530531879977660  0.1490314844436144  0.4840105706883901
  0.6530870875098967  0.6490484075208115  0.4840071831332791
  0.4045867711599395  0.1017112849693630  0.4339903401645812
  0.4041668264155817  0.6020846952013545  0.4334633837313513
  0.9045886389352260  0.1017114827832307  0.4339893467273547
  0.9045911033139772  0.6017086350731922  0.4339918015232790
  0.3467659708957531  0.0180529837699913  0.5159771204928429
  0.3458709824212930  0.5183807973539760  0.5155408235999875
  0.8467637376168955  0.0180573681790777  0.5159779479591006
  0.8467640610366799  0.5180518256713972  0.5159771034175467
  0.0959607585187712  0.0659562788677010  0.5666960379195669
  0.0959630639819159  0.5659569188322477  0.5666931102350720
  0.5959615427677583  0.0659546295755137  0.5666953410527504
  0.5959504163478814  0.5659626770981000  0.5666942410303009
  0.1570161645761503  0.3136318314374960  0.5660528319209643
  0.1570070263664619  0.8136335694693179  0.5660529027160687
  0.6569633499214540  0.3136391569698746  0.5660524721938280
  0.6570132632963657  0.8136312712611288  0.5660527763175717
  0.4045394139746872  0.2679909057687134  0.5159781965912655
  0.4045503085436266  0.7679872273472693  0.5159747805308287
  0.9045457447603928  0.2679858961746955  0.5159782728431205
  0.9045456535104620  0.7679851316383864  0.5159785738975057
  0.3448656718367191  0.1869467097755629  0.6002173778201805
  0.3448975085045572  0.6869049964104273  0.6001758292367209
  0.8448633415565853  0.1869484981522358  0.6002171951123544
  0.8448672920988597  0.6869462358422832  0.6002168143416177
  0.0959900280108641  0.2322898259127565  0.6492435565452396
  0.0959908809319045  0.7322897223428763  0.6492431030285617
  0.5959870804708415  0.2322887695157075  0.6492445195494342
  0.5959836111933479  0.7322827703656507  0.6492448929707847
  0.1501657508026169  0.4832883041435984  0.6477523686544832
  0.1501619090957027  0.9832900550556025  0.6477544685388713
  0.6501651960208034  0.4832880921826589  0.6477523739226596
  0.6501669225685068  0.9832872900241961  0.6477524217546310
  0.4023342399015952  0.4367297977701181  0.6001314536483394
  0.4023419905156054  0.9367228191003454  0.6001364075105245
  0.9023436516309646  0.4367231385008464  0.6001340481631120
  0.9023409568262672  0.9367251017229834  0.6001399224539726
  0.3432726619842947  0.3490301673373441  0.6784604326648350
  0.3432702222852083  0.8490298974942299  0.6784602866930057
  0.8432704128647857  0.3490296050516798  0.6784602727626933
  0.8432555702827804  0.8490253454119849  0.6784612767308059
  0.9068528770767941  0.0935024702768145  0.6761220018855622
  0.9068416270227959  0.5934963423185520  0.6761208973615264
  0.4068404011807753  0.0935026217375632  0.6761207347210448
  0.4068466896673892  0.5934936953552199  0.6761202836771129
 
  0.00000000E+00  0.00000000E+00  0.00000000E+00
  0.00000000E+00  0.00000000E+00  0.00000000E+00
  0.00000000E+00  0.00000000E+00  0.00000000E+00
  0.00000000E+00  0.00000000E+00  0.00000000E+00
  0.00000000E+00  0.00000000E+00  0.00000000E+00
  0.00000000E+00  0.00000000E+00  0.00000000E+00
  0.00000000E+00  0.00000000E+00  0.00000000E+00
  0.00000000E+00  0.00000000E+00  0.00000000E+00
  0.00000000E+00  0.00000000E+00  0.00000000E+00
  0.00000000E+00  0.00000000E+00  0.00000000E+00
  0.00000000E+00  0.00000000E+00  0.00000000E+00
  0.00000000E+00  0.00000000E+00  0.00000000E+00
  0.00000000E+00  0.00000000E+00  0.00000000E+00
  0.00000000E+00  0.00000000E+00  0.00000000E+00
  0.00000000E+00  0.00000000E+00  0.00000000E+00
  0.00000000E+00  0.00000000E+00  0.00000000E+00
  0.00000000E+00  0.00000000E+00  0.00000000E+00
  0.00000000E+00  0.00000000E+00  0.00000000E+00
  0.00000000E+00  0.00000000E+00  0.00000000E+00
  0.00000000E+00  0.00000000E+00  0.00000000E+00
  0.00000000E+00  0.00000000E+00  0.00000000E+00
  0.00000000E+00  0.00000000E+00  0.00000000E+00
  0.00000000E+00  0.00000000E+00  0.00000000E+00
  0.00000000E+00  0.00000000E+00  0.00000000E+00
  0.00000000E+00  0.00000000E+00  0.00000000E+00
  0.00000000E+00  0.00000000E+00  0.00000000E+00
  0.00000000E+00  0.00000000E+00  0.00000000E+00
  0.00000000E+00  0.00000000E+00  0.00000000E+00
  0.00000000E+00  0.00000000E+00  0.00000000E+00
  0.00000000E+00  0.00000000E+00  0.00000000E+00
  0.00000000E+00  0.00000000E+00  0.00000000E+00
  0.00000000E+00  0.00000000E+00  0.00000000E+00
  0.00000000E+00  0.00000000E+00  0.00000000E+00
  0.00000000E+00  0.00000000E+00  0.00000000E+00
  0.00000000E+00  0.00000000E+00  0.00000000E+00
  0.00000000E+00  0.00000000E+00  0.00000000E+00
  0.00000000E+00  0.00000000E+00  0.00000000E+00
  0.00000000E+00  0.00000000E+00  0.00000000E+00
  0.00000000E+00  0.00000000E+00  0.00000000E+00
  0.00000000E+00  0.00000000E+00  0.00000000E+00
  0.00000000E+00  0.00000000E+00  0.00000000E+00
  0.00000000E+00  0.00000000E+00  0.00000000E+00
  0.00000000E+00  0.00000000E+00  0.00000000E+00
  0.00000000E+00  0.00000000E+00  0.00000000E+00
  0.00000000E+00  0.00000000E+00  0.00000000E+00
  0.00000000E+00  0.00000000E+00  0.00000000E+00
  0.00000000E+00  0.00000000E+00  0.00000000E+00
  0.00000000E+00  0.00000000E+00  0.00000000E+00
  0.00000000E+00  0.00000000E+00  0.00000000E+00
  0.00000000E+00  0.00000000E+00  0.00000000E+00
  0.00000000E+00  0.00000000E+00  0.00000000E+00
  0.00000000E+00  0.00000000E+00  0.00000000E+00
  0.00000000E+00  0.00000000E+00  0.00000000E+00
  0.00000000E+00  0.00000000E+00  0.00000000E+00
  0.00000000E+00  0.00000000E+00  0.00000000E+00
  0.00000000E+00  0.00000000E+00  0.00000000E+00
  0.00000000E+00  0.00000000E+00  0.00000000E+00
  0.00000000E+00  0.00000000E+00  0.00000000E+00
  0.00000000E+00  0.00000000E+00  0.00000000E+00
  0.00000000E+00  0.00000000E+00  0.00000000E+00
  0.00000000E+00  0.00000000E+00  0.00000000E+00
  0.00000000E+00  0.00000000E+00  0.00000000E+00
  0.00000000E+00  0.00000000E+00  0.00000000E+00
  0.00000000E+00  0.00000000E+00  0.00000000E+00
  0.00000000E+00  0.00000000E+00  0.00000000E+00
  0.00000000E+00  0.00000000E+00  0.00000000E+00
  0.00000000E+00  0.00000000E+00  0.00000000E+00
  0.00000000E+00  0.00000000E+00  0.00000000E+00
  0.00000000E+00  0.00000000E+00  0.00000000E+00
  0.00000000E+00  0.00000000E+00  0.00000000E+00
  0.00000000E+00  0.00000000E+00  0.00000000E+00
  0.00000000E+00  0.00000000E+00  0.00000000E+00
  0.00000000E+00  0.00000000E+00  0.00000000E+00
  0.00000000E+00  0.00000000E+00  0.00000000E+00
  0.00000000E+00  0.00000000E+00  0.00000000E+00
  0.00000000E+00  0.00000000E+00  0.00000000E+00
  0.00000000E+00  0.00000000E+00  0.00000000E+00
  0.00000000E+00  0.00000000E+00  0.00000000E+00
  0.00000000E+00  0.00000000E+00  0.00000000E+00
  0.00000000E+00  0.00000000E+00  0.00000000E+00
  0.00000000E+00  0.00000000E+00  0.00000000E+00
  0.00000000E+00  0.00000000E+00  0.00000000E+00
  0.00000000E+00  0.00000000E+00  0.00000000E+00
  0.00000000E+00  0.00000000E+00  0.00000000E+00
  0.00000000E+00  0.00000000E+00  0.00000000E+00
  0.00000000E+00  0.00000000E+00  0.00000000E+00
  0.00000000E+00  0.00000000E+00  0.00000000E+00
  0.00000000E+00  0.00000000E+00  0.00000000E+00
  0.00000000E+00  0.00000000E+00  0.00000000E+00
  0.00000000E+00  0.00000000E+00  0.00000000E+00
  0.00000000E+00  0.00000000E+00  0.00000000E+00
  0.00000000E+00  0.00000000E+00  0.00000000E+00
  0.00000000E+00  0.00000000E+00  0.00000000E+00
  0.00000000E+00  0.00000000E+00  0.00000000E+00
  0.00000000E+00  0.00000000E+00  0.00000000E+00
  0.00000000E+00  0.00000000E+00  0.00000000E+00
  0.00000000E+00  0.00000000E+00  0.00000000E+00
  0.00000000E+00  0.00000000E+00  0.00000000E+00
  0.00000000E+00  0.00000000E+00  0.00000000E+00
  0.00000000E+00  0.00000000E+00  0.00000000E+00
  0.00000000E+00  0.00000000E+00  0.00000000E+00
  0.00000000E+00  0.00000000E+00  0.00000000E+00
  0.00000000E+00  0.00000000E+00  0.00000000E+00
  0.00000000E+00  0.00000000E+00  0.00000000E+00
