H1 Ir32 O69                             
   1.00000000000000     
     6.3790139999999997    0.0000000000000000    0.0000000000000000
     0.0000000000000000   12.8550290000000000    0.0000000000000000
     0.0000000000000000    0.0000000000000000   38.5650860000000009
   H    Ir   O 
     1    32    69
Direct
  0.9578289727703150  0.6789790746024511  0.7160272176366773
  0.2499825508383738  0.1250747591061334  0.3735506034908619
  0.2499437049228008  0.6250747313572332  0.3735503801231249
  0.7499827363889268  0.1250749311999865  0.3735506952455807
  0.7500232245872374  0.6250720307377252  0.3735501570175916
 -0.0000171295761922  0.3752034625868251  0.3763993814134230
 -0.0000217222497763  0.8752109861886336  0.3763961470559228
  0.4999825231721382  0.3751934860140543  0.3763975012167077
  0.4999786388857260  0.8752236841750450  0.3763958581823562
  0.2499874532822541  0.3752461640556666  0.4580084531241798
  0.2500113241051421  0.8753772043183013  0.4580140448756583
  0.7499564927708057  0.3752556192738314  0.4580095436119245
  0.7499658879479060  0.8753913169447461  0.4580130578866210
 -0.0000166324467629  0.1251444270068050  0.4579455073567181
 -0.0000092160159424  0.6251426202756777  0.4579448496481027
  0.4999793375864376  0.1251461544809166  0.4579460162757819
  0.5000224159390907  0.6251378987396848  0.4579457525061824
  0.2499544345570124  0.1252063529786203  0.5412826326197256
  0.2505052004276339  0.6246644226024916  0.5412871426046155
  0.7500047634528452  0.1252110274455891  0.5412831918412935
  0.7496012298620419  0.6255425921162628  0.5413071036196984
 -0.0001118297186600  0.3752437701459301  0.5419594113236731
  0.0000313276827683  0.8750547351431983  0.5419619634516203
  0.5000220953578441  0.3750698183904949  0.5419612304441493
  0.4998943407539164  0.8753009229013416  0.5419478785548936
  0.2500370091590574  0.3754441782446493  0.6263035718099071
  0.2500221333718363  0.8749205684556491  0.6262964920346082
  0.7499301340936663  0.3752259532204618  0.6263045377253934
  0.7498646554813002  0.8748248530382161  0.6263069420846027
  0.0000145465651594  0.1251988359066824  0.6263187948887219
 -0.0004187632715353  0.6264005058849661  0.6248498971809140
  0.4999875135769448  0.1251948786539858  0.6263193269703108
  0.4999251092489143  0.6245782982963035  0.6262791880733549
 -0.0000050477404668  0.1250071768188876  0.3423491652131373
 -0.0000046867379693  0.6250072023624991  0.3423485569875048
  0.4999949871479685  0.1250070823225794  0.3423490448825091
  0.4999948970617656  0.6250070613889257  0.3423491758298224
  0.2499936740895228  0.2771578431330184  0.3749590891887513
  0.2499940617176639  0.7771577296151789  0.3749591312005083
  0.7499934513180674  0.2771578579656059  0.3749591095414540
  0.7499927226741016  0.7771577396870072  0.3749591606882893
 -0.0000087298920560  0.1250070770972414  0.4075786801745180
 -0.0000081705921600  0.6250072344940156  0.4075788351964046
  0.4999862785824162  0.1250056725093648  0.4075704079434119
  0.4999914243017873  0.6250070676896419  0.4075806810342076
  0.2499948892794528  0.4728690657460032  0.3749582545089549
  0.2499934724523012  0.9728689601563805  0.3749581330352823
  0.7499941487366775  0.4728689903688447  0.3749582457875559
  0.7499940797357159  0.9728690462994729  0.3749581258645852
 -0.0000074440046586  0.3750061954564712  0.4257287062773675
 -0.0000063117175953  0.8750057382625256  0.4257288170634838
  0.4999911876763345  0.3750065362011760  0.4257281272384782
  0.4999943118033645  0.8750052575589691  0.4257281014384843
  0.2499922479834278  0.0271687753316712  0.4583164466520401
  0.2499887265502385  0.5271645903792488  0.4583165808953381
  0.7499939657733005  0.0271693378086463  0.4583164960726099
  0.7500057236243244  0.5271649258793739  0.4583163837125928
 -0.0000102497910657  0.3750088819929902  0.4909483948425810
 -0.0000048994613499  0.8750091508703232  0.4909486334331216
  0.4999945916844121  0.3750098433370432  0.4909483177990112
  0.4999895859239145  0.8750077420867699  0.4909486303931452
  0.2499926051559078  0.2228693763318237  0.4583162440649954
  0.2499879618320306  0.7228729023079752  0.4583161868473078
  0.7499949807260554  0.2228697985290972  0.4583162061039960
  0.7500026656386972  0.7228733037492633  0.4583163145166171
 -0.0000044005848478  0.1250092771405814  0.5090183215268098
 -0.0000000784788057  0.6250083053258552  0.5090195687817723
  0.4999960289350972  0.1250092428615594  0.5090185185707505
  0.5000101670224230  0.6250093502657048  0.5090176840180116
  0.2499838888972142  0.2771526568283746  0.5416540645257666
  0.2500085317338331  0.7771392955708708  0.5416544919092069
  0.7499970093983387  0.2771531981193396  0.5416542156602683
  0.7499657565911523  0.7771638943299454  0.5416542473639498
 -0.0000042502548348  0.1250094595384526  0.5742665252761466
  0.0003378502932475  0.6250020121102752  0.5742096543143828
  0.4999920076053025  0.1250095600944413  0.5742665292293124
  0.4999917625197046  0.6250053908591324  0.5742673773997502
  0.2500270202020447  0.4728635530590594  0.5416536961312485
  0.2499874867720141  0.9728803773917101  0.5416541081875262
  0.7499850538603963  0.4728878915672563  0.5416541006903508
  0.7499970987843931  0.9728798525533399  0.5416539238369422
 -0.0000007656644036  0.3750088485329558  0.5923913476952134
  0.0000077099614109  0.8750060310628286  0.5923915234581150
  0.5000040825012303  0.3750062757900670  0.5923904915245956
  0.4999931581189827  0.8750154747557599  0.5923891149582357
  0.2499977845884140  0.0278820606612237  0.6238523320108030
  0.2500106580991759  0.5278743198636099  0.6238556996965220
  0.7500015139040669  0.0278761164374414  0.6238522241882124
  0.7500117927319406  0.5278953779696565  0.6238516844545920
  0.0000222926433678  0.3750135480453116  0.6576136569935938
  0.0000645295926674  0.8750629688783415  0.6576056325431344
  0.4999796061897531  0.3750115013095729  0.6576133828541163
  0.5000021163055022  0.8750009687553491  0.6576140426412556
  0.2499966448467824  0.2221451550453050  0.6238518622045596
  0.2499642300312927  0.7221388755888366  0.6238557407890788
  0.7500015790429283  0.2221403769248382  0.6238521901140920
  0.7499751908352029  0.7221492986181821  0.6238570266069542
 -0.0000107875667719  0.1250077941727242  0.6722438982777824
  0.4999868925293967  0.1250079541168169  0.6722445119168847
  0.4996646840069278  0.6250022571505958  0.6722445813482006
  0.0066633934982532  0.6180720346876696  0.6736568223682761
  0.9309411954658566  0.7082400157903997  0.6932613496106360
 
  0.00000000E+00  0.00000000E+00  0.00000000E+00
  0.00000000E+00  0.00000000E+00  0.00000000E+00
  0.00000000E+00  0.00000000E+00  0.00000000E+00
  0.00000000E+00  0.00000000E+00  0.00000000E+00
  0.00000000E+00  0.00000000E+00  0.00000000E+00
  0.00000000E+00  0.00000000E+00  0.00000000E+00
  0.00000000E+00  0.00000000E+00  0.00000000E+00
  0.00000000E+00  0.00000000E+00  0.00000000E+00
  0.00000000E+00  0.00000000E+00  0.00000000E+00
  0.00000000E+00  0.00000000E+00  0.00000000E+00
  0.00000000E+00  0.00000000E+00  0.00000000E+00
  0.00000000E+00  0.00000000E+00  0.00000000E+00
  0.00000000E+00  0.00000000E+00  0.00000000E+00
  0.00000000E+00  0.00000000E+00  0.00000000E+00
  0.00000000E+00  0.00000000E+00  0.00000000E+00
  0.00000000E+00  0.00000000E+00  0.00000000E+00
  0.00000000E+00  0.00000000E+00  0.00000000E+00
  0.00000000E+00  0.00000000E+00  0.00000000E+00
  0.00000000E+00  0.00000000E+00  0.00000000E+00
  0.00000000E+00  0.00000000E+00  0.00000000E+00
  0.00000000E+00  0.00000000E+00  0.00000000E+00
  0.00000000E+00  0.00000000E+00  0.00000000E+00
  0.00000000E+00  0.00000000E+00  0.00000000E+00
  0.00000000E+00  0.00000000E+00  0.00000000E+00
  0.00000000E+00  0.00000000E+00  0.00000000E+00
  0.00000000E+00  0.00000000E+00  0.00000000E+00
  0.00000000E+00  0.00000000E+00  0.00000000E+00
  0.00000000E+00  0.00000000E+00  0.00000000E+00
  0.00000000E+00  0.00000000E+00  0.00000000E+00
  0.00000000E+00  0.00000000E+00  0.00000000E+00
  0.00000000E+00  0.00000000E+00  0.00000000E+00
  0.00000000E+00  0.00000000E+00  0.00000000E+00
  0.00000000E+00  0.00000000E+00  0.00000000E+00
  0.00000000E+00  0.00000000E+00  0.00000000E+00
  0.00000000E+00  0.00000000E+00  0.00000000E+00
  0.00000000E+00  0.00000000E+00  0.00000000E+00
  0.00000000E+00  0.00000000E+00  0.00000000E+00
  0.00000000E+00  0.00000000E+00  0.00000000E+00
  0.00000000E+00  0.00000000E+00  0.00000000E+00
  0.00000000E+00  0.00000000E+00  0.00000000E+00
  0.00000000E+00  0.00000000E+00  0.00000000E+00
  0.00000000E+00  0.00000000E+00  0.00000000E+00
  0.00000000E+00  0.00000000E+00  0.00000000E+00
  0.00000000E+00  0.00000000E+00  0.00000000E+00
  0.00000000E+00  0.00000000E+00  0.00000000E+00
  0.00000000E+00  0.00000000E+00  0.00000000E+00
  0.00000000E+00  0.00000000E+00  0.00000000E+00
  0.00000000E+00  0.00000000E+00  0.00000000E+00
  0.00000000E+00  0.00000000E+00  0.00000000E+00
  0.00000000E+00  0.00000000E+00  0.00000000E+00
  0.00000000E+00  0.00000000E+00  0.00000000E+00
  0.00000000E+00  0.00000000E+00  0.00000000E+00
  0.00000000E+00  0.00000000E+00  0.00000000E+00
  0.00000000E+00  0.00000000E+00  0.00000000E+00
  0.00000000E+00  0.00000000E+00  0.00000000E+00
  0.00000000E+00  0.00000000E+00  0.00000000E+00
  0.00000000E+00  0.00000000E+00  0.00000000E+00
  0.00000000E+00  0.00000000E+00  0.00000000E+00
  0.00000000E+00  0.00000000E+00  0.00000000E+00
  0.00000000E+00  0.00000000E+00  0.00000000E+00
  0.00000000E+00  0.00000000E+00  0.00000000E+00
  0.00000000E+00  0.00000000E+00  0.00000000E+00
  0.00000000E+00  0.00000000E+00  0.00000000E+00
  0.00000000E+00  0.00000000E+00  0.00000000E+00
  0.00000000E+00  0.00000000E+00  0.00000000E+00
  0.00000000E+00  0.00000000E+00  0.00000000E+00
  0.00000000E+00  0.00000000E+00  0.00000000E+00
  0.00000000E+00  0.00000000E+00  0.00000000E+00
  0.00000000E+00  0.00000000E+00  0.00000000E+00
  0.00000000E+00  0.00000000E+00  0.00000000E+00
  0.00000000E+00  0.00000000E+00  0.00000000E+00
  0.00000000E+00  0.00000000E+00  0.00000000E+00
  0.00000000E+00  0.00000000E+00  0.00000000E+00
  0.00000000E+00  0.00000000E+00  0.00000000E+00
  0.00000000E+00  0.00000000E+00  0.00000000E+00
  0.00000000E+00  0.00000000E+00  0.00000000E+00
  0.00000000E+00  0.00000000E+00  0.00000000E+00
  0.00000000E+00  0.00000000E+00  0.00000000E+00
  0.00000000E+00  0.00000000E+00  0.00000000E+00
  0.00000000E+00  0.00000000E+00  0.00000000E+00
  0.00000000E+00  0.00000000E+00  0.00000000E+00
  0.00000000E+00  0.00000000E+00  0.00000000E+00
  0.00000000E+00  0.00000000E+00  0.00000000E+00
  0.00000000E+00  0.00000000E+00  0.00000000E+00
  0.00000000E+00  0.00000000E+00  0.00000000E+00
  0.00000000E+00  0.00000000E+00  0.00000000E+00
  0.00000000E+00  0.00000000E+00  0.00000000E+00
  0.00000000E+00  0.00000000E+00  0.00000000E+00
  0.00000000E+00  0.00000000E+00  0.00000000E+00
  0.00000000E+00  0.00000000E+00  0.00000000E+00
  0.00000000E+00  0.00000000E+00  0.00000000E+00
  0.00000000E+00  0.00000000E+00  0.00000000E+00
  0.00000000E+00  0.00000000E+00  0.00000000E+00
  0.00000000E+00  0.00000000E+00  0.00000000E+00
  0.00000000E+00  0.00000000E+00  0.00000000E+00
  0.00000000E+00  0.00000000E+00  0.00000000E+00
  0.00000000E+00  0.00000000E+00  0.00000000E+00
  0.00000000E+00  0.00000000E+00  0.00000000E+00
  0.00000000E+00  0.00000000E+00  0.00000000E+00
  0.00000000E+00  0.00000000E+00  0.00000000E+00
  0.00000000E+00  0.00000000E+00  0.00000000E+00
  0.00000000E+00  0.00000000E+00  0.00000000E+00
