H1 Ir32 O69                             
   1.00000000000000     
     6.3790139999999997    0.0000000000000000    0.0000000000000000
     0.0000000000000000   12.8550290000000000    0.0000000000000000
     0.0000000000000000    0.0000000000000000   38.5650860000000009
   H    Ir   O 
     1    32    69
Direct
  0.8916953692643425  0.6041786787799629  0.7160154366426184
  0.2499541905003786  0.1249902034794700  0.3735402886828735
  0.2499334999708953  0.6249868777157073  0.3735411839189330
  0.7499493640838533  0.1249903188891291  0.3735405600457439
  0.7499561246914104  0.6249851043149321  0.3735422803056294
 -0.0002539840693232  0.3749729507867906  0.3764723630842662
 -0.0002469179616562  0.8749780219978353  0.3764884494063115
  0.4997617745833512  0.3749741805827346  0.3764896245796867
  0.4997534483582498  0.8749762357739035  0.3764902488951344
  0.2499510189203220  0.3750425113709891  0.4580064601645421
  0.2499399577362714  0.8749881404317905  0.4580078187636564
  0.7499493582016188  0.3749131207938762  0.4580072226228727
  0.7499587884600465  0.8750416358392844  0.4580068739536217
 -0.0001309410714153  0.1249820817959343  0.4579413711416509
 -0.0001403697325769  0.6249583216291295  0.4579427625798178
  0.4998351682695370  0.1249619809241492  0.4579421451836749
  0.4999586617060487  0.6249958900511015  0.4579324049936299
  0.2498980678311366  0.1250414141791281  0.5412695124475172
  0.2505503112500718  0.6255003058005195  0.5413343483259594
  0.7499375792864930  0.1250797085999799  0.5412717649832229
  0.7491721308322333  0.6245872839051394  0.5413257786973407
 -0.0000473740739545  0.3750213972227538  0.5419594301234713
 -0.0004466699287410  0.8750103332285856  0.5419529770898310
  0.4996640229531842  0.3748872263907868  0.5419505215601481
  0.4998947975070806  0.8750455145557831  0.5419571401980320
  0.2502848699885105  0.3751232573408999  0.6262997743255951
  0.2502569914064692  0.8747917328933095  0.6263156294637413
  0.7499236461506446  0.3749532304682426  0.6262887636316522
  0.7499099127636615  0.8752667821574285  0.6262829885314174
  0.0000370603330443  0.1249862647244168  0.6262902628706543
 -0.0031260020540280  0.6245762881037664  0.6246642737439994
  0.4998467592824803  0.1249441020641925  0.6263009646009262
  0.4991624049734413  0.6251287312006832  0.6264934154833481
 -0.0000165722208794  0.1249981264598266  0.3423485017005933
 -0.0000171666773879  0.6249981051424459  0.3423483739185685
  0.4999837626815135  0.1249981317287184  0.3423484475777744
  0.4999839117184964  0.6249983533119229  0.3423485222678074
  0.2499602569137916  0.2771430261823160  0.3749587885157546
  0.2499598555190830  0.7771430182477636  0.3749589120564948
  0.7499592364348202  0.2771428816000915  0.3749587714321255
  0.7499603248437029  0.7771430989637926  0.3749588617414579
 -0.0000269051027812  0.1249983618532549  0.4075684700247595
 -0.0000566112227968  0.6249988747093521  0.4075743966056201
  0.4999705917579325  0.1249982936424709  0.4075683886789188
  0.4999777264385957  0.6249983202801996  0.4075686029774063
  0.2499597595565404  0.4728525115698393  0.3749589695475651
  0.2499598002708073  0.9728527209620246  0.3749590126344735
  0.7499585382680087  0.4728523571592440  0.3749589137996531
  0.7499598395057413  0.9728527067144520  0.3749590184938186
 -0.0000210076680392  0.3749983544373158  0.4257308160203578
 -0.0000178363984769  0.8749987067161852  0.4257314422813350
  0.4999809350248136  0.3749986314761020  0.4257315208581687
  0.4999771660733718  0.8749986428425870  0.4257315958842458
  0.2499673575047225  0.0271450654872506  0.4583155595626873
  0.2499745195076981  0.5271471001079497  0.4583155917102143
  0.7499689426285394  0.0271465497981227  0.4583155414453381
  0.7499738330554739  0.5271428012993304  0.4583157921874452
 -0.0000187155360788  0.3749980257956457  0.4909472665812621
 -0.0000335467156668  0.8749988877782446  0.4909471311542858
  0.4999686828575802  0.3749985032199756  0.4909480106399562
  0.4999791351263905  0.8749986305485932  0.4909477958629492
  0.2499691530673530  0.2228517838353137  0.4583155509271101
  0.2499737346271955  0.7228496015587824  0.4583158882325570
  0.7499666779294437  0.2228480329006058  0.4583155998553941
  0.7499778360015833  0.7228514309658267  0.4583154985436340
 -0.0000147964127691  0.1249988644190167  0.5090176172461816
 -0.0000611626149767  0.6249977247526308  0.5090219370580946
  0.4999527659869402  0.1249988811398004  0.5090185269691865
  0.5000039871503703  0.6249969451701348  0.5090178537733664
  0.2499535857520052  0.2771362275197401  0.5416532843582814
  0.2499857173281242  0.7771547297056669  0.5416532130961522
  0.7499706851849310  0.2771367124039368  0.5416531662750699
  0.7499324572631889  0.7771292430116865  0.5416541400177451
 -0.0000242965784890  0.1249990471184849  0.5742647022792513
  0.0003338614610767  0.6249998261789632  0.5742476066689901
  0.4999756461504552  0.1249988765970744  0.5742650141349706
  0.4998005156486507  0.6249975748827259  0.5742701059087527
  0.2499854068569413  0.4728712805310464  0.5416533054759629
  0.2499471774686173  0.9728629208886013  0.5416531484758322
  0.7499197385164518  0.4728417431657290  0.5416538609603807
  0.7499610059044470  0.9728651724566063  0.5416532393495915
  0.0000070209547085  0.3750008229882638  0.5923904501843743
 -0.0000132751580621  0.8749956722013862  0.5923898298680630
  0.4999720638978970  0.3749930879699391  0.5923887640374599
  0.5000038991095085  0.8750027104614622  0.5923899348514230
  0.2499944229180751  0.0278660844000861  0.6238515792420786
  0.2499909843294479  0.5278630823373844  0.6238524754034137
  0.7499993535516501  0.0278762801304987  0.6238515295350610
  0.7499241374785163  0.5278657586640897  0.6238568289721604
  0.0000107897703716  0.3749977509262761  0.6576135819402120
  0.0000070739101589  0.8749950961322891  0.6576139222373739
  0.4999986357755305  0.3750033751709603  0.6576132214244714
  0.4999937734606598  0.8749934734322179  0.6576135843853906
  0.2499940447253683  0.2221287385313227  0.6238518652220469
  0.2500021849709492  0.7221299633301351  0.6238550533731596
  0.7500001159897002  0.2221270070588943  0.6238516795352849
  0.7499604130500812  0.7221054930163797  0.6238548487745895
 -0.0000088674369403  0.1249981658855652  0.6722416316010908
  0.4999962846711501  0.1249981769649618  0.6722433954752641
  0.4990290881978517  0.6250157329362185  0.6722557817795374
  0.0084089548025196  0.6250419530375438  0.6736294837010359
  0.8329253697807183  0.5937093391943811  0.6930222416474625
 
  0.00000000E+00  0.00000000E+00  0.00000000E+00
  0.00000000E+00  0.00000000E+00  0.00000000E+00
  0.00000000E+00  0.00000000E+00  0.00000000E+00
  0.00000000E+00  0.00000000E+00  0.00000000E+00
  0.00000000E+00  0.00000000E+00  0.00000000E+00
  0.00000000E+00  0.00000000E+00  0.00000000E+00
  0.00000000E+00  0.00000000E+00  0.00000000E+00
  0.00000000E+00  0.00000000E+00  0.00000000E+00
  0.00000000E+00  0.00000000E+00  0.00000000E+00
  0.00000000E+00  0.00000000E+00  0.00000000E+00
  0.00000000E+00  0.00000000E+00  0.00000000E+00
  0.00000000E+00  0.00000000E+00  0.00000000E+00
  0.00000000E+00  0.00000000E+00  0.00000000E+00
  0.00000000E+00  0.00000000E+00  0.00000000E+00
  0.00000000E+00  0.00000000E+00  0.00000000E+00
  0.00000000E+00  0.00000000E+00  0.00000000E+00
  0.00000000E+00  0.00000000E+00  0.00000000E+00
  0.00000000E+00  0.00000000E+00  0.00000000E+00
  0.00000000E+00  0.00000000E+00  0.00000000E+00
  0.00000000E+00  0.00000000E+00  0.00000000E+00
  0.00000000E+00  0.00000000E+00  0.00000000E+00
  0.00000000E+00  0.00000000E+00  0.00000000E+00
  0.00000000E+00  0.00000000E+00  0.00000000E+00
  0.00000000E+00  0.00000000E+00  0.00000000E+00
  0.00000000E+00  0.00000000E+00  0.00000000E+00
  0.00000000E+00  0.00000000E+00  0.00000000E+00
  0.00000000E+00  0.00000000E+00  0.00000000E+00
  0.00000000E+00  0.00000000E+00  0.00000000E+00
  0.00000000E+00  0.00000000E+00  0.00000000E+00
  0.00000000E+00  0.00000000E+00  0.00000000E+00
  0.00000000E+00  0.00000000E+00  0.00000000E+00
  0.00000000E+00  0.00000000E+00  0.00000000E+00
  0.00000000E+00  0.00000000E+00  0.00000000E+00
  0.00000000E+00  0.00000000E+00  0.00000000E+00
  0.00000000E+00  0.00000000E+00  0.00000000E+00
  0.00000000E+00  0.00000000E+00  0.00000000E+00
  0.00000000E+00  0.00000000E+00  0.00000000E+00
  0.00000000E+00  0.00000000E+00  0.00000000E+00
  0.00000000E+00  0.00000000E+00  0.00000000E+00
  0.00000000E+00  0.00000000E+00  0.00000000E+00
  0.00000000E+00  0.00000000E+00  0.00000000E+00
  0.00000000E+00  0.00000000E+00  0.00000000E+00
  0.00000000E+00  0.00000000E+00  0.00000000E+00
  0.00000000E+00  0.00000000E+00  0.00000000E+00
  0.00000000E+00  0.00000000E+00  0.00000000E+00
  0.00000000E+00  0.00000000E+00  0.00000000E+00
  0.00000000E+00  0.00000000E+00  0.00000000E+00
  0.00000000E+00  0.00000000E+00  0.00000000E+00
  0.00000000E+00  0.00000000E+00  0.00000000E+00
  0.00000000E+00  0.00000000E+00  0.00000000E+00
  0.00000000E+00  0.00000000E+00  0.00000000E+00
  0.00000000E+00  0.00000000E+00  0.00000000E+00
  0.00000000E+00  0.00000000E+00  0.00000000E+00
  0.00000000E+00  0.00000000E+00  0.00000000E+00
  0.00000000E+00  0.00000000E+00  0.00000000E+00
  0.00000000E+00  0.00000000E+00  0.00000000E+00
  0.00000000E+00  0.00000000E+00  0.00000000E+00
  0.00000000E+00  0.00000000E+00  0.00000000E+00
  0.00000000E+00  0.00000000E+00  0.00000000E+00
  0.00000000E+00  0.00000000E+00  0.00000000E+00
  0.00000000E+00  0.00000000E+00  0.00000000E+00
  0.00000000E+00  0.00000000E+00  0.00000000E+00
  0.00000000E+00  0.00000000E+00  0.00000000E+00
  0.00000000E+00  0.00000000E+00  0.00000000E+00
  0.00000000E+00  0.00000000E+00  0.00000000E+00
  0.00000000E+00  0.00000000E+00  0.00000000E+00
  0.00000000E+00  0.00000000E+00  0.00000000E+00
  0.00000000E+00  0.00000000E+00  0.00000000E+00
  0.00000000E+00  0.00000000E+00  0.00000000E+00
  0.00000000E+00  0.00000000E+00  0.00000000E+00
  0.00000000E+00  0.00000000E+00  0.00000000E+00
  0.00000000E+00  0.00000000E+00  0.00000000E+00
  0.00000000E+00  0.00000000E+00  0.00000000E+00
  0.00000000E+00  0.00000000E+00  0.00000000E+00
  0.00000000E+00  0.00000000E+00  0.00000000E+00
  0.00000000E+00  0.00000000E+00  0.00000000E+00
  0.00000000E+00  0.00000000E+00  0.00000000E+00
  0.00000000E+00  0.00000000E+00  0.00000000E+00
  0.00000000E+00  0.00000000E+00  0.00000000E+00
  0.00000000E+00  0.00000000E+00  0.00000000E+00
  0.00000000E+00  0.00000000E+00  0.00000000E+00
  0.00000000E+00  0.00000000E+00  0.00000000E+00
  0.00000000E+00  0.00000000E+00  0.00000000E+00
  0.00000000E+00  0.00000000E+00  0.00000000E+00
  0.00000000E+00  0.00000000E+00  0.00000000E+00
  0.00000000E+00  0.00000000E+00  0.00000000E+00
  0.00000000E+00  0.00000000E+00  0.00000000E+00
  0.00000000E+00  0.00000000E+00  0.00000000E+00
  0.00000000E+00  0.00000000E+00  0.00000000E+00
  0.00000000E+00  0.00000000E+00  0.00000000E+00
  0.00000000E+00  0.00000000E+00  0.00000000E+00
  0.00000000E+00  0.00000000E+00  0.00000000E+00
  0.00000000E+00  0.00000000E+00  0.00000000E+00
  0.00000000E+00  0.00000000E+00  0.00000000E+00
  0.00000000E+00  0.00000000E+00  0.00000000E+00
  0.00000000E+00  0.00000000E+00  0.00000000E+00
  0.00000000E+00  0.00000000E+00  0.00000000E+00
  0.00000000E+00  0.00000000E+00  0.00000000E+00
  0.00000000E+00  0.00000000E+00  0.00000000E+00
  0.00000000E+00  0.00000000E+00  0.00000000E+00
  0.00000000E+00  0.00000000E+00  0.00000000E+00
  0.00000000E+00  0.00000000E+00  0.00000000E+00
