Ir32 O68                                
   1.00000000000000     
     6.3790139999999997    0.0000000000000000    0.0000000000000000
     0.0000000000000000   12.8550290000000000    0.0000000000000000
     0.0000000000000000    0.0000000000000000   38.5650860000000009
   Ir   O 
    32    68
Direct
  0.2500000003790132  0.1250003931899746  0.3734665016144639
  0.2499999665396375  0.6249996606103073  0.3734662127722707
  0.7499999989375007  0.1250004372975340  0.3734663777118178
  0.7500000312590466  0.6249996361320008  0.3734662927727192
 -0.0000000144578952  0.3750001598820754  0.3761407499519417
  0.0000000113726559  0.8750001964842627  0.3761407561099538
  0.5000000144196680  0.3750001632809183  0.3761406887099120
  0.4999999885038082  0.8750001923110631  0.3761407902469729
  0.2499999704742461  0.3750001807862756  0.4579207085053831
  0.2500000594171196  0.8750002495889140  0.4579207709976960
  0.7500000292175512  0.3750001728112434  0.4579207121835259
  0.7499999398098376  0.8750002571985637  0.4579207761510359
  0.0000000844460487  0.1249999749682423  0.4578895896264805
  0.0000000046646828  0.6250003059281146  0.4578895553185983
  0.4999999150301284  0.1249999681746688  0.4578895909539839
  0.4999999951590056  0.6250003130529292  0.4578895560694425
  0.2499999787344965  0.1250021136090735  0.5411958572088283
  0.2500001499394972  0.6249982800585756  0.5411958693407314
  0.7500000204129423  0.1250021642269777  0.5411958693408696
  0.7499998491502136  0.6249982288127950  0.5411958792608530
  0.0000000065418350  0.3750002300827966  0.5419240573554762
 -0.0000000854362120  0.8750001978652779  0.5419241589830731
  0.4999999901110974  0.3750002329979799  0.5419240585967311
  0.5000000938227805  0.8750001928061214  0.5419241532277606
  0.2499998171023457  0.3750001670209724  0.6262658418356210
  0.2500002405572744  0.8750000802180429  0.6262659899520758
  0.7500001818983231  0.3750001826793792  0.6262658736658127
  0.7499997586482127  0.8750000809919493  0.6262659834745692
 -0.0000001456867215  0.1250000458782278  0.6262043933207392
 -0.0000001640341154  0.6250002297001518  0.6262044103188322
  0.5000001451329020  0.1250000465392760  0.6262044001805211
  0.5000001638741061  0.6250002246135689  0.6262043947028419
  0.0000000282690963  0.1250000145925576  0.3423393325615956
 -0.0000000191331949  0.6250000179875691  0.3423393847850089
  0.4999999714825453  0.1250000153461969  0.3423393321512569
  0.5000000188694809  0.6250000169614196  0.3423393845594488
  0.2499999989602322  0.2771404649300673  0.3749467995802228
  0.2500000000345757  0.7771401716612794  0.3749468199626563
  0.7500000002850149  0.2771401699752450  0.3749468258723859
  0.7499999998396701  0.7771403082071829  0.3749468072126774
 -0.0000006729189011  0.1249999876327215  0.4075607801338816
  0.0000003675811179  0.6250000467655913  0.4075607767408264
  0.5000006760647809  0.1249999861347149  0.4075607797009822
  0.4999996329177888  0.6250000495561842  0.4075607772469904
  0.2499999978689863  0.4728600505599155  0.3749468377902701
  0.2500000023612115  0.9728594146225267  0.3749467824727012
  0.7500000027107695  0.4728599125890634  0.3749468251067629
  0.7499999976268988  0.9728597108761545  0.3749468085066489
  0.0000000181357420  0.3750000417207318  0.4257102420986955
 -0.0000000216822531  0.8749999905814254  0.4257102003671305
  0.4999999822456830  0.3750000413613185  0.4257102646933437
  0.5000000215527595  0.8749999907356864  0.4257101967751922
  0.2500000039449242  0.0271471909673020  0.4583076121310553
  0.2499999977664052  0.5271478584389668  0.4583075823228755
  0.7499999958144110  0.0271474532480776  0.4583075948591051
  0.7500000019847360  0.5271476613198928  0.4583075961117190
 -0.0000001895342748  0.3750000387871796  0.4909372130126506
  0.0000002046663636  0.8750000021166096  0.4909371792755634
  0.5000001900767708  0.3750000390965285  0.4909372032677835
  0.4999997965141399  0.8750000018026625  0.4909372004608670
  0.2499999972458322  0.2228520714027065  0.4583075735397026
  0.2500000049759061  0.7228528871649079  0.4583076144634783
  0.7500000026572133  0.2228522583510739  0.4583075879149370
  0.7499999952235609  0.7228526398119027  0.4583075968872665
  0.0000000248719736  0.1249999890871402  0.5090098648307259
 -0.0000000082629717  0.6250000327669278  0.5090097176837400
  0.4999999751802185  0.1249999854873544  0.5090098761341569
  0.5000000081402854  0.6250000338175263  0.5090096946507463
  0.2499999995193298  0.2771381274241578  0.5416455934200034
  0.2500000047708048  0.7771379049006312  0.5416455981349890
  0.7499999999963493  0.2771380521385873  0.5416455971145839
  0.7499999961893449  0.7771378883856841  0.5416455979740976
  0.0000000333209660  0.1250000164649716  0.5742508600166784
 -0.0000000106288927  0.6250000420213280  0.5742508636115730
  0.4999999644401578  0.1250000152793926  0.5742508581918245
  0.5000000114078273  0.6250000429762469  0.5742508695612377
  0.2500000127656145  0.4728620959960687  0.5416455980886206
  0.2499999919735912  0.9728619091237880  0.5416455902467898
  0.7499999867670413  0.4728621048185386  0.5416455986855853
  0.7500000091017046  0.9728619924854931  0.5416455932828483
  0.0000002011718334  0.3750000273364086  0.5923811213262049
 -0.0000000680734612  0.8750000115782979  0.5923810827352074
  0.4999997981101940  0.3750000276558886  0.5923811272293892
  0.5000000680890141  0.8750000105235132  0.5923810603213632
  0.2500000026737226  0.0278778668228802  0.6238435765901439
  0.2499999993661732  0.5278778156199987  0.6238435692729901
  0.7499999964922029  0.0278777351913403  0.6238436182258050
  0.7499999978713405  0.5278785059324487  0.6238434058820758
 -0.0000024838989182  0.3750000274010786  0.6576009903918291
  0.0000004476131715  0.8750000181733355  0.6576009831803251
  0.5000024855289580  0.3750000241977209  0.6576009880934874
  0.4999995530487268  0.8750000203723599  0.6576009871943530
  0.2499999899175891  0.2221222203174069  0.6238435714695827
  0.2500000187140727  0.7221221304046047  0.6238435703043745
  0.7500000123114811  0.2221215462206057  0.6238434113604324
  0.7499999825342361  0.7221222764602961  0.6238436153974272
 -0.0000000468550635  0.1250000080592852  0.6722259060758599
 -0.0000000423874048  0.6250000106984978  0.6722259035809784
  0.5000000459682746  0.1250000079005981  0.6722259069538818
  0.5000000419014864  0.6250000108559648  0.6722258997588498
 
  0.00000000E+00  0.00000000E+00  0.00000000E+00
  0.00000000E+00  0.00000000E+00  0.00000000E+00
  0.00000000E+00  0.00000000E+00  0.00000000E+00
  0.00000000E+00  0.00000000E+00  0.00000000E+00
  0.00000000E+00  0.00000000E+00  0.00000000E+00
  0.00000000E+00  0.00000000E+00  0.00000000E+00
  0.00000000E+00  0.00000000E+00  0.00000000E+00
  0.00000000E+00  0.00000000E+00  0.00000000E+00
  0.00000000E+00  0.00000000E+00  0.00000000E+00
  0.00000000E+00  0.00000000E+00  0.00000000E+00
  0.00000000E+00  0.00000000E+00  0.00000000E+00
  0.00000000E+00  0.00000000E+00  0.00000000E+00
  0.00000000E+00  0.00000000E+00  0.00000000E+00
  0.00000000E+00  0.00000000E+00  0.00000000E+00
  0.00000000E+00  0.00000000E+00  0.00000000E+00
  0.00000000E+00  0.00000000E+00  0.00000000E+00
  0.00000000E+00  0.00000000E+00  0.00000000E+00
  0.00000000E+00  0.00000000E+00  0.00000000E+00
  0.00000000E+00  0.00000000E+00  0.00000000E+00
  0.00000000E+00  0.00000000E+00  0.00000000E+00
  0.00000000E+00  0.00000000E+00  0.00000000E+00
  0.00000000E+00  0.00000000E+00  0.00000000E+00
  0.00000000E+00  0.00000000E+00  0.00000000E+00
  0.00000000E+00  0.00000000E+00  0.00000000E+00
  0.00000000E+00  0.00000000E+00  0.00000000E+00
  0.00000000E+00  0.00000000E+00  0.00000000E+00
  0.00000000E+00  0.00000000E+00  0.00000000E+00
  0.00000000E+00  0.00000000E+00  0.00000000E+00
  0.00000000E+00  0.00000000E+00  0.00000000E+00
  0.00000000E+00  0.00000000E+00  0.00000000E+00
  0.00000000E+00  0.00000000E+00  0.00000000E+00
  0.00000000E+00  0.00000000E+00  0.00000000E+00
  0.00000000E+00  0.00000000E+00  0.00000000E+00
  0.00000000E+00  0.00000000E+00  0.00000000E+00
  0.00000000E+00  0.00000000E+00  0.00000000E+00
  0.00000000E+00  0.00000000E+00  0.00000000E+00
  0.00000000E+00  0.00000000E+00  0.00000000E+00
  0.00000000E+00  0.00000000E+00  0.00000000E+00
  0.00000000E+00  0.00000000E+00  0.00000000E+00
  0.00000000E+00  0.00000000E+00  0.00000000E+00
  0.00000000E+00  0.00000000E+00  0.00000000E+00
  0.00000000E+00  0.00000000E+00  0.00000000E+00
  0.00000000E+00  0.00000000E+00  0.00000000E+00
  0.00000000E+00  0.00000000E+00  0.00000000E+00
  0.00000000E+00  0.00000000E+00  0.00000000E+00
  0.00000000E+00  0.00000000E+00  0.00000000E+00
  0.00000000E+00  0.00000000E+00  0.00000000E+00
  0.00000000E+00  0.00000000E+00  0.00000000E+00
  0.00000000E+00  0.00000000E+00  0.00000000E+00
  0.00000000E+00  0.00000000E+00  0.00000000E+00
  0.00000000E+00  0.00000000E+00  0.00000000E+00
  0.00000000E+00  0.00000000E+00  0.00000000E+00
  0.00000000E+00  0.00000000E+00  0.00000000E+00
  0.00000000E+00  0.00000000E+00  0.00000000E+00
  0.00000000E+00  0.00000000E+00  0.00000000E+00
  0.00000000E+00  0.00000000E+00  0.00000000E+00
  0.00000000E+00  0.00000000E+00  0.00000000E+00
  0.00000000E+00  0.00000000E+00  0.00000000E+00
  0.00000000E+00  0.00000000E+00  0.00000000E+00
  0.00000000E+00  0.00000000E+00  0.00000000E+00
  0.00000000E+00  0.00000000E+00  0.00000000E+00
  0.00000000E+00  0.00000000E+00  0.00000000E+00
  0.00000000E+00  0.00000000E+00  0.00000000E+00
  0.00000000E+00  0.00000000E+00  0.00000000E+00
  0.00000000E+00  0.00000000E+00  0.00000000E+00
  0.00000000E+00  0.00000000E+00  0.00000000E+00
  0.00000000E+00  0.00000000E+00  0.00000000E+00
  0.00000000E+00  0.00000000E+00  0.00000000E+00
  0.00000000E+00  0.00000000E+00  0.00000000E+00
  0.00000000E+00  0.00000000E+00  0.00000000E+00
  0.00000000E+00  0.00000000E+00  0.00000000E+00
  0.00000000E+00  0.00000000E+00  0.00000000E+00
  0.00000000E+00  0.00000000E+00  0.00000000E+00
  0.00000000E+00  0.00000000E+00  0.00000000E+00
  0.00000000E+00  0.00000000E+00  0.00000000E+00
  0.00000000E+00  0.00000000E+00  0.00000000E+00
  0.00000000E+00  0.00000000E+00  0.00000000E+00
  0.00000000E+00  0.00000000E+00  0.00000000E+00
  0.00000000E+00  0.00000000E+00  0.00000000E+00
  0.00000000E+00  0.00000000E+00  0.00000000E+00
  0.00000000E+00  0.00000000E+00  0.00000000E+00
  0.00000000E+00  0.00000000E+00  0.00000000E+00
  0.00000000E+00  0.00000000E+00  0.00000000E+00
  0.00000000E+00  0.00000000E+00  0.00000000E+00
  0.00000000E+00  0.00000000E+00  0.00000000E+00
  0.00000000E+00  0.00000000E+00  0.00000000E+00
  0.00000000E+00  0.00000000E+00  0.00000000E+00
  0.00000000E+00  0.00000000E+00  0.00000000E+00
  0.00000000E+00  0.00000000E+00  0.00000000E+00
  0.00000000E+00  0.00000000E+00  0.00000000E+00
  0.00000000E+00  0.00000000E+00  0.00000000E+00
  0.00000000E+00  0.00000000E+00  0.00000000E+00
  0.00000000E+00  0.00000000E+00  0.00000000E+00
  0.00000000E+00  0.00000000E+00  0.00000000E+00
  0.00000000E+00  0.00000000E+00  0.00000000E+00
  0.00000000E+00  0.00000000E+00  0.00000000E+00
  0.00000000E+00  0.00000000E+00  0.00000000E+00
  0.00000000E+00  0.00000000E+00  0.00000000E+00
  0.00000000E+00  0.00000000E+00  0.00000000E+00
  0.00000000E+00  0.00000000E+00  0.00000000E+00
