Ir32 O64                                
   1.00000000000000     
     9.0898780000000006    0.0000000000000000    0.0000000000000000
     0.0000000000000000   11.1045669999999994   -0.0793000000000000
     0.0000000000000000    0.0000000000000000   31.3300599999999996
   Ir   O 
    32    64
Direct
  0.2636398381161135  0.3284257823625726  0.3750274982682971
  0.2636402368901820  0.8284248399899125  0.3750279539615656
  0.7636404294845887  0.3284263978009491  0.3750276857081929
  0.7636403011770463  0.8284267197004129  0.3750276446353518
 -0.0102354243915856  0.0778322802838029  0.3748821460429971
 -0.0102372844653196  0.5778314117180823  0.3748820116642684
  0.4897641315146810  0.0778316090681693  0.3748822097707937
  0.4897641356812009  0.5778315934652488  0.3748826414838243
  0.2482064203403947  0.0021577398427788  0.4572776999972131
  0.2482127063279797  0.5021576982261091  0.4572778833254456
  0.7482083873863349  0.0021590756093002  0.4572778697802729
  0.7482069830618598  0.5021586795359181  0.4572782252413821
  0.0023353860077104  0.2520831447940129  0.4575351698469173
  0.0023374776118597  0.7520797461544061  0.4575352959921419
  0.5023375600689045  0.2520801657523253  0.4575351626012941
  0.5023377532548536  0.7520804658769739  0.4575353594374733
  0.2517882921350567  0.1645034412650762  0.5427201961224749
  0.2517957139969148  0.6644998916610387  0.5427198262031305
  0.7517894020264436  0.1645040789295649  0.5427203872375314
  0.7517932080863227  0.6645018437855109  0.5427212177551328
 -0.0023372518167771  0.4145869801279087  0.5424640291627708
 -0.0023370599547032  0.9145868172498310  0.5424637791688509
  0.4976799404981392  0.4145713147076439  0.5424652838472691
  0.4976767035483854  0.9145711622453158  0.5424655146986089
  0.2363626218454769  0.3382394035438623  0.6249712991951735
  0.2363630008155718  0.8382389644579614  0.6249713032655840
  0.7363623593744475  0.3382389006574861  0.6249714967633654
  0.7363636735466388  0.8382385701570492  0.6249714237305928
  0.0102361809215560  0.0888354091910395  0.6251174128335816
  0.0102401661611595  0.5888357546839730  0.6251175557335349
  0.5102351232590620  0.0888352207425279  0.6251170964822046
  0.5102396181328757  0.5888357820018825  0.6251174556987156
  0.3465967224903514  0.1880424319429540  0.3510612289270170
  0.3465986767477647  0.6880392169798927  0.3510611295949943
  0.8465966357574490  0.1880422584070256  0.3510613545013250
  0.8465963274824997  0.6880424972559044  0.3510612233051372
  0.0957101332935547  0.2318183098038336  0.3993273830475006
  0.0957327186962010  0.7318069227064110  0.3993267058416243
  0.5957142631793613  0.2318083836679970  0.3993287135382502
  0.5957140901454846  0.7318083490369105  0.3993287378986459
  0.1532407845628696  0.4815961279565538  0.3992611975669598
  0.1532408205922697  0.9815962188916617  0.3992611748261707
  0.6532410469892194  0.4815960465873973  0.3992612491532542
  0.6532410251004831  0.9815959935046118  0.3992612057159826
  0.4042411297751329  0.4348018430621359  0.3493750767524164
  0.4042409215998476  0.9348020109740869  0.3493750937282655
  0.9042408425320508  0.4348019911077589  0.3493750717519731
  0.9042411389174354  0.9348017563152446  0.3493750687472409
  0.3427480641067945  0.3531525978009055  0.4339877292062305
  0.3427478440800639  0.8531524904103114  0.4339875989255764
  0.8427475553380713  0.3531527314985616  0.4339877277179558
  0.8427479878960125  0.8531525714789651  0.4339876311192857
  0.0957714498948447  0.4004583459005543  0.4845065834089565
  0.0957710270180445  0.9004579933100122  0.4845064554320152
  0.5957715559748746  0.4004581431074230  0.4845065488424536
  0.5957711653313927  0.9004579879355280  0.4845064387004869
  0.1532105420782414  0.1489089393015063  0.4840456914224935
  0.1532114148756174  0.6489089577816878  0.4840458291173153
  0.6532108336458788  0.1489091438408870  0.4840457762576422
  0.6532113298465781  0.6489090923004894  0.4840458268673629
  0.4042537508790292  0.1019270850375348  0.4333381904921684
  0.4042541943696404  0.6019271905629968  0.4333381336742056
  0.9042538472885780  0.1019271647294350  0.4333381703347418
  0.9042540732056709  0.6019271363260602  0.4333381564331419
  0.3467716881765706  0.0177635658470564  0.5159533758716737
  0.3468038765970268  0.5177784434911185  0.5159522230823355
  0.8467708780640172  0.0177659910728473  0.5159530046924368
  0.8467687207120551  0.5177633858708621  0.5159532505183965
  0.0957305039293064  0.0647508593986757  0.5666716133379640
  0.0957308472828975  0.5647509463020610  0.5666715711457987
  0.5957305192704053  0.0647507916735458  0.5666715661506193
  0.5957306591429844  0.5647510131498018  0.5666717022945651
  0.1572539897766259  0.3135120643864620  0.5660119460227465
  0.1572541445939537  0.8135119235175153  0.5660119971886010
  0.6572549336609572  0.3135116854098944  0.5660120290452177
  0.6572539834465814  0.8135117033312527  0.5660130512606646
  0.4042293262290496  0.2662078565192237  0.5154931505076314
  0.4042293412945118  0.7662078128987950  0.5154931209370709
  0.9042291772450716  0.2662080615294273  0.5154931770851131
  0.9042291365657897  0.7662078415662956  0.5154930780869776
  0.3467617282797965  0.1850706031511346  0.6007377703100266
  0.3467622905916599  0.6850705976319835  0.6007378392500687
  0.8467617762966956  0.1850705572347883  0.6007377713296252
  0.8467623385343681  0.6850706861615807  0.6007378607954376
  0.0957606326954086  0.2318648240229379  0.6506242180344357
  0.0957608573257641  0.7318647158578669  0.6506242060515955
  0.5957605883066568  0.2318646745902670  0.6506242223609269
  0.5957609612821445  0.7318645075141359  0.6506241667499530
  0.1534010900691884  0.4786235745158915  0.6489373169882594
  0.1534007081544274  0.9786235983942052  0.6489372393127776
  0.6534009764953144  0.4786235374275827  0.6489373089226136
  0.6534005842750413  0.9786235647188689  0.6489372482190841
  0.4042848147769269  0.4348502784915235  0.6006718745511672
  0.4042958677947306  0.9348550091434372  0.6006710422680068
  0.9042833297756097  0.4348512384391576  0.6006721646842522
  0.9042950850237801  0.9348552716279728  0.6006710544392038
 
  0.00000000E+00  0.00000000E+00  0.00000000E+00
  0.00000000E+00  0.00000000E+00  0.00000000E+00
  0.00000000E+00  0.00000000E+00  0.00000000E+00
  0.00000000E+00  0.00000000E+00  0.00000000E+00
  0.00000000E+00  0.00000000E+00  0.00000000E+00
  0.00000000E+00  0.00000000E+00  0.00000000E+00
  0.00000000E+00  0.00000000E+00  0.00000000E+00
  0.00000000E+00  0.00000000E+00  0.00000000E+00
  0.00000000E+00  0.00000000E+00  0.00000000E+00
  0.00000000E+00  0.00000000E+00  0.00000000E+00
  0.00000000E+00  0.00000000E+00  0.00000000E+00
  0.00000000E+00  0.00000000E+00  0.00000000E+00
  0.00000000E+00  0.00000000E+00  0.00000000E+00
  0.00000000E+00  0.00000000E+00  0.00000000E+00
  0.00000000E+00  0.00000000E+00  0.00000000E+00
  0.00000000E+00  0.00000000E+00  0.00000000E+00
  0.00000000E+00  0.00000000E+00  0.00000000E+00
  0.00000000E+00  0.00000000E+00  0.00000000E+00
  0.00000000E+00  0.00000000E+00  0.00000000E+00
  0.00000000E+00  0.00000000E+00  0.00000000E+00
  0.00000000E+00  0.00000000E+00  0.00000000E+00
  0.00000000E+00  0.00000000E+00  0.00000000E+00
  0.00000000E+00  0.00000000E+00  0.00000000E+00
  0.00000000E+00  0.00000000E+00  0.00000000E+00
  0.00000000E+00  0.00000000E+00  0.00000000E+00
  0.00000000E+00  0.00000000E+00  0.00000000E+00
  0.00000000E+00  0.00000000E+00  0.00000000E+00
  0.00000000E+00  0.00000000E+00  0.00000000E+00
  0.00000000E+00  0.00000000E+00  0.00000000E+00
  0.00000000E+00  0.00000000E+00  0.00000000E+00
  0.00000000E+00  0.00000000E+00  0.00000000E+00
  0.00000000E+00  0.00000000E+00  0.00000000E+00
  0.00000000E+00  0.00000000E+00  0.00000000E+00
  0.00000000E+00  0.00000000E+00  0.00000000E+00
  0.00000000E+00  0.00000000E+00  0.00000000E+00
  0.00000000E+00  0.00000000E+00  0.00000000E+00
  0.00000000E+00  0.00000000E+00  0.00000000E+00
  0.00000000E+00  0.00000000E+00  0.00000000E+00
  0.00000000E+00  0.00000000E+00  0.00000000E+00
  0.00000000E+00  0.00000000E+00  0.00000000E+00
  0.00000000E+00  0.00000000E+00  0.00000000E+00
  0.00000000E+00  0.00000000E+00  0.00000000E+00
  0.00000000E+00  0.00000000E+00  0.00000000E+00
  0.00000000E+00  0.00000000E+00  0.00000000E+00
  0.00000000E+00  0.00000000E+00  0.00000000E+00
  0.00000000E+00  0.00000000E+00  0.00000000E+00
  0.00000000E+00  0.00000000E+00  0.00000000E+00
  0.00000000E+00  0.00000000E+00  0.00000000E+00
  0.00000000E+00  0.00000000E+00  0.00000000E+00
  0.00000000E+00  0.00000000E+00  0.00000000E+00
  0.00000000E+00  0.00000000E+00  0.00000000E+00
  0.00000000E+00  0.00000000E+00  0.00000000E+00
  0.00000000E+00  0.00000000E+00  0.00000000E+00
  0.00000000E+00  0.00000000E+00  0.00000000E+00
  0.00000000E+00  0.00000000E+00  0.00000000E+00
  0.00000000E+00  0.00000000E+00  0.00000000E+00
  0.00000000E+00  0.00000000E+00  0.00000000E+00
  0.00000000E+00  0.00000000E+00  0.00000000E+00
  0.00000000E+00  0.00000000E+00  0.00000000E+00
  0.00000000E+00  0.00000000E+00  0.00000000E+00
  0.00000000E+00  0.00000000E+00  0.00000000E+00
  0.00000000E+00  0.00000000E+00  0.00000000E+00
  0.00000000E+00  0.00000000E+00  0.00000000E+00
  0.00000000E+00  0.00000000E+00  0.00000000E+00
  0.00000000E+00  0.00000000E+00  0.00000000E+00
  0.00000000E+00  0.00000000E+00  0.00000000E+00
  0.00000000E+00  0.00000000E+00  0.00000000E+00
  0.00000000E+00  0.00000000E+00  0.00000000E+00
  0.00000000E+00  0.00000000E+00  0.00000000E+00
  0.00000000E+00  0.00000000E+00  0.00000000E+00
  0.00000000E+00  0.00000000E+00  0.00000000E+00
  0.00000000E+00  0.00000000E+00  0.00000000E+00
  0.00000000E+00  0.00000000E+00  0.00000000E+00
  0.00000000E+00  0.00000000E+00  0.00000000E+00
  0.00000000E+00  0.00000000E+00  0.00000000E+00
  0.00000000E+00  0.00000000E+00  0.00000000E+00
  0.00000000E+00  0.00000000E+00  0.00000000E+00
  0.00000000E+00  0.00000000E+00  0.00000000E+00
  0.00000000E+00  0.00000000E+00  0.00000000E+00
  0.00000000E+00  0.00000000E+00  0.00000000E+00
  0.00000000E+00  0.00000000E+00  0.00000000E+00
  0.00000000E+00  0.00000000E+00  0.00000000E+00
  0.00000000E+00  0.00000000E+00  0.00000000E+00
  0.00000000E+00  0.00000000E+00  0.00000000E+00
  0.00000000E+00  0.00000000E+00  0.00000000E+00
  0.00000000E+00  0.00000000E+00  0.00000000E+00
  0.00000000E+00  0.00000000E+00  0.00000000E+00
  0.00000000E+00  0.00000000E+00  0.00000000E+00
  0.00000000E+00  0.00000000E+00  0.00000000E+00
  0.00000000E+00  0.00000000E+00  0.00000000E+00
  0.00000000E+00  0.00000000E+00  0.00000000E+00
  0.00000000E+00  0.00000000E+00  0.00000000E+00
  0.00000000E+00  0.00000000E+00  0.00000000E+00
  0.00000000E+00  0.00000000E+00  0.00000000E+00
  0.00000000E+00  0.00000000E+00  0.00000000E+00
  0.00000000E+00  0.00000000E+00  0.00000000E+00
