Pd64 O2
1.0
  11.0798020200000007    0.0000000000000000    0.0000000000000007
   0.0000000000000018   11.0798020200000007    0.0000000000000007
   0.0000000000000000    0.0000000000000000   39.1730157000000005
Pd O
64 2
Selective dynamics
direct
   0.0000002000000000    0.2500001600000000    0.5252761300000000 T T T Pd
   0.0000003000000000    0.5000001400000000    0.5252761100000000 T T T Pd
   0.0000002700000000    0.7499998900000000    0.5252760600000000 T T T Pd
   0.0000001600000000   -0.0000001900000000    0.5252760500000000 T T T Pd
   0.2500002600000000    0.2500002500000000    0.5252761000000000 T T T Pd
   0.2500002000000000    0.5000002500000000    0.5252761100000000 T T T Pd
   0.2500002800000000    0.7499997500000000    0.5252761000000000 T T T Pd
   0.2500002800000000   -0.0000002500000000    0.5252760800000000 T T T Pd
   0.4999998600000000    0.2500000600000000    0.5252761400000000 T T T Pd
   0.4999997800000000    0.5000001700000000    0.5252761400000000 T T T Pd
   0.4999998400000000    0.7499999800000000    0.5252762100000000 T T T Pd
   0.4999999200000000   -0.0000002100000000    0.5252762000000000 T T T Pd
   0.7499996799999999    0.2500001600000000    0.5252761800000000 T T T Pd
   0.7499997500000000    0.5000001300000000    0.5252761600000000 T T T Pd
   0.7499996200000000    0.7499999400000000    0.5252761600000000 T T T Pd
   0.7499996300000000   -0.0000002300000000    0.5252761800000000 T T T Pd
   0.1250001200000000    0.1249999900000000    0.5748310200000000 T T T Pd
   0.1250001100000000    0.3750001700000000    0.5748310300000000 T T T Pd
   0.1250002300000000    0.6250000400000000    0.5748310400000000 T T T Pd
   0.1250002000000000    0.8749997900000001    0.5748310200000000 T T T Pd
   0.3750002600000000    0.1249999800000000    0.5748310300000000 T T T Pd
   0.3750001500000000    0.3750000900000000    0.5748310300000000 T T T Pd
   0.3750000600000000    0.6250000600000000    0.5748310200000000 T T T Pd
   0.3750002400000000    0.8749998700000000    0.5748310200000000 T T T Pd
   0.6249998200000000    0.1249999000000000    0.5748310200000000 T T T Pd
   0.6249998500000000    0.3750000100000000    0.5748310300000000 T T T Pd
   0.6249997300000000    0.6250000900000000    0.5748309400000000 T T T Pd
   0.6249997400000000    0.8750000100000001    0.5748309400000000 T T T Pd
   0.8749997800000000    0.1250000400000000    0.5748310900000000 T T T Pd
   0.8749998400000000    0.3750000000000000    0.5748310200000000 T T T Pd
   0.8749999300000000    0.6249999899999999    0.5748310100000000 T T T Pd
   0.8749998100000000    0.8749999899999999    0.5748310800000000 T T T Pd
   0.2500000000000000    0.0000000000000000    0.4250000000000000 F F F Pd
   0.2500000000000000    0.2500000000000000    0.4250000000000000 F F F Pd
   0.2500000000000000    0.5000000000000000    0.4250000000000000 F F F Pd
   0.2500000000000000    0.7500000000000000    0.4250000000000000 F F F Pd
   0.5000000000000000    0.0000000000000000    0.4250000000000000 F F F Pd
   0.5000000000000000    0.2500000000000000    0.4250000000000000 F F F Pd
   0.5000000000000000    0.5000000000000000    0.4250000000000000 F F F Pd
   0.5000000000000000    0.7500000000000000    0.4250000000000000 F F F Pd
   0.7500000000000000    0.0000000000000000    0.4250000000000000 F F F Pd
   0.7500000000000000    0.2500000000000000    0.4250000000000000 F F F Pd
   0.7500000000000000    0.5000000000000000    0.4250000000000000 F F F Pd
   0.7500000000000000    0.7500000000000000    0.4250000000000000 F F F Pd
   0.0000000000000000    0.0000000000000000    0.4250000000000000 F F F Pd
   0.0000000000000000    0.2500000000000000    0.4250000000000000 F F F Pd
   0.0000000000000000    0.5000000000000000    0.4250000000000000 F F F Pd
   0.0000000000000000    0.7500000000000000    0.4250000000000000 F F F Pd
   0.1250000000000000    0.1250000000000000    0.4750000000000000 F F F Pd
   0.1250000000000000    0.3750000000000000    0.4750000000000000 F F F Pd
   0.1250000000000000    0.6250000000000000    0.4750000000000000 F F F Pd
   0.1250000000000000    0.8750000000000000    0.4750000000000000 F F F Pd
   0.3750000000000000    0.1250000000000000    0.4750000000000000 F F F Pd
   0.3750000000000000    0.3750000000000000    0.4750000000000000 F F F Pd
   0.3750000000000000    0.6250000000000000    0.4750000000000000 F F F Pd
   0.3750000000000000    0.8750000000000000    0.4750000000000000 F F F Pd
   0.6250000000000000    0.1250000000000000    0.4750000000000000 F F F Pd
   0.6250000000000000    0.3750000000000000    0.4750000000000000 F F F Pd
   0.6250000000000000    0.6250000000000000    0.4750000000000000 F F F Pd
   0.6250000000000000    0.8750000000000000    0.4750000000000000 F F F Pd
   0.8750000000000000    0.1250000000000000    0.4750000000000000 F F F Pd
   0.8750000000000000    0.3750000000000000    0.4750000000000000 F F F Pd
   0.8750000000000000    0.6250000000000000    0.4750000000000000 F F F Pd
   0.8750000000000000    0.8750000000000000    0.4750000000000000 F F F Pd
   0.2500002400406284    0.8749998700000000    0.6258865735299266 T T T O
   0.4999997400406282    0.8750000100000008    0.6258864935299264 T T T O
