Ba10 Sr10 Co24 H1 O69                   
    1.000000000000000     
    11.1057150000000000    0.0000000000000000    0.0000000000000000
    -0.0047930000000000    5.5528550000000001    0.0000000000000000
     0.0000000000000000    0.0000000000000000   87.2902260000000041
   Ba   Sr   Co   H    O 
    10    10    24     1    69
Direct
  0.9994919572711753  0.9986154473883777  0.5550883154934710
  0.4999887790135064  0.9984441960245833  0.5550804299211065
  0.2502784928432972  0.4994732133988411  0.6010433050581386
  0.7529509232700161  0.5003875717857268  0.6008880481843184
  0.0001059733815924  0.9983142703399627  0.4637173550881230
  0.5001040841740938  0.9982712157522456  0.4637194149850639
  0.2494387434688308  0.4956490804871876  0.5094882373369466
  0.7493771406107812  0.4957390995390082  0.5094985120164297
  0.2493821913555094  0.5004818697047897  0.4168542019738011
  0.7493256792070403  0.5004043335683191  0.4168599330249895
  0.2495275383222451  0.4915389463703335  0.5552961255167597
  0.7498254868939843  0.4918716054227363  0.5552786274849955
  0.5013227283582560  0.0042670794838998  0.6009699625102723
 -0.0003965735748424  0.0079157001903908  0.6010600489440865
  0.2526009962733283  0.4993054294991285  0.4633232940263627
  0.7498496259583056  0.4940458723076680  0.4634260845445912
  0.4997301634185822  0.9920265918968728  0.5089461586823880
  0.9997518388704305  0.9920485770314804  0.5089478094284356
  0.4999393391236822  0.9999244325218614  0.4175583248111378
 -0.0000547242543515  0.9999239749959346  0.4175592278124388
  0.2494755971435135  0.0074378420248934  0.6225725797317452
  0.7479345153041246  0.0099564218874640  0.6217938232799010
  0.0016870303705407  0.5107710909302281  0.6218889584906826
  0.5020656255999283  0.5116056754887301  0.6218863513156396
  0.9995471606492281  0.5086832312120650  0.5782033413062764
  0.4995044717266454  0.5085605669098946  0.5781391591856893
  0.2500268220499764  0.0005748614871651  0.5773710643053065
  0.7498922657033279  0.0007770392576865  0.5773667739519478
  0.2501865922112111  0.9984858917647377  0.5320594533478192
  0.7500754475093803  0.9986967740340733  0.5320514977785872
  0.9997560372875628  0.4992820497107329  0.5320255939070301
  0.4997679801062692  0.4991771207194773  0.5320254933598737
  0.9991370051698055  0.5060277855356680  0.4863772675212539
  0.4991152595393902  0.5058620019642032  0.4863933414280957
  0.2499355584021800  0.9999404600197135  0.4866960542624957
  0.7499713967027081  0.9996690474427058  0.4866919645126078
  0.2499434640738252  0.9994946281333777  0.4413381258640255
  0.7500797762215755  0.9991438563386706  0.4413387790034971
 -0.0000932037047220  0.4995546586278820  0.4413423173010194
  0.4999725358240040  0.4995902326843357  0.4413349635878782
  0.9980804971705781  0.5105332855880093  0.3953620851144854
  0.4980681918170043  0.5105621361206008  0.3953625564736113
  0.2517562233515943  0.0107397748587163  0.3953175095778996
  0.7517601355466182  0.0107378610407488  0.3953192220910876
  0.2500098938601803  0.8320269838166170  0.6465124403260871
  0.0000010041822095  0.4998500886623520  0.6004367991356672
  0.4999890773453389  0.4998583413238092  0.6004369011069954
  0.9953034616673090  0.4998644539733015  0.5531787748919872
  0.5046927587596133  0.4999899384423639  0.5531795774033456
  0.1309270458091007  0.7874927418854337  0.6224129940283581
  0.6310006525724918  0.7876394768516976  0.6228986557109395
  0.3811352554760130  0.7124010229962262  0.6229019863753487
  0.8810712528506840  0.7125004502643206  0.6229051161717696
  0.3691056293110264  0.2125362563890696  0.6228852801418390
  0.8691011705249380  0.2080319817558000  0.6227498011642489
  0.1188257128951992  0.2876201503218380  0.6228998174418399
  0.6189322313138218  0.2874902932874519  0.6229028661155109
  0.2499930082144955 -0.0000774263637619  0.5542754864825470
  0.7499923101784371 -0.0000784305870567  0.5542762748270611
  0.2499948033766480  0.0000185004317199  0.5995909829103933
  0.7499960830039271  0.9999176203408136  0.5995633829895727
  0.3771945896021925  0.2802075491751638  0.5779877131554619
  0.8772077026978988  0.2801748649969098  0.5779998723512405
  0.1262715471129942  0.2247494730037508  0.5781147786053085
  0.6262704901851336  0.2247400345449712  0.5781156787882465
  0.1228508368179202  0.7198329048918335  0.5779807419846407
  0.6228408802664025  0.7198683389431444  0.5779969709478021
  0.3737426525744079  0.7751317007878572  0.5781153154488921
  0.8737451899340469  0.7751405076287615  0.5781163959396126
  0.9953133206984521  0.4999431041774791  0.5078630417152602
  0.4953164038291464  0.4999436249449488  0.5078638474361169
 -0.0000045445500949  0.4999139887993042  0.4644880030072459
  0.4999967363585725  0.4999133513836145  0.4644876776765681
  0.1380339450054325  0.7748132597634739  0.5327962284538172
  0.6380494764940507  0.7748508630543440  0.5327940044876389
  0.3880413519366683  0.7249425518252902  0.5327911440232947
  0.8880373494097082  0.7249894684387129  0.5327870781946624
  0.3619415054890969  0.2250361032932824  0.5327938178204799
  0.8619260674528075  0.2249976751949333  0.5327915309843917
  0.1119534708780608  0.2749451280199434  0.5327894966263402
  0.6119573178645036  0.2748938792045492  0.5327853059512940
  0.2500059237423843  0.9875102908658758  0.4635263083846594
  0.7500017337005490  0.9875145605349861  0.4635263916022462
  0.2499925439416870  0.9875659823928494  0.5088449545540599
  0.7499931449620274  0.9875648713520393  0.5088466008798632
  0.3927987786985172  0.2624479769855907  0.4869548614149903
  0.8927982187504014  0.2624477165390273  0.4869549310203869
  0.1428620870151099  0.2373789637868649  0.4864749837933989
  0.6428591757918604  0.2373812026057595  0.4864748681166058
  0.1072168911569672  0.7375426544965802  0.4869572410340189
  0.6072170991058892  0.7375413084369696  0.4869572574207158
  0.3571830724187878  0.7624912989067198  0.4864745298342398
  0.8571828411956450  0.7624895119167902  0.4864746014301214
 -0.0000059518095038  0.4999294306751562  0.4191641433332164
  0.4999938447265214  0.4999284938217637  0.4191639174163211
  0.1380118714478206  0.7749217932639768  0.4406249464244224
  0.6380089014303424  0.7749169193422127  0.4406250162557842
  0.3857761688696023  0.7249552864246833  0.4406346814133152
  0.8857777783155463  0.7249518295978351  0.4406344724099846
  0.3619563464111450  0.2249617468216450  0.4406293434792965
  0.8619563757609082  0.2249590719522302  0.4406294379853867
  0.1142448745743585  0.2749209568831152  0.4406375174094095
  0.6142456963199581  0.2749171611200303  0.4406377336261275
  0.2499874104945236 -0.0000736897657712  0.4167658663895796
  0.7499875256681844 -0.0000748010601727  0.4167655168349326
  0.3881782199505238  0.2751008868100043  0.3937625166493971
  0.8881783939003481  0.2751021475038340  0.3937624980091856
  0.1380745554453352  0.2247968733414531  0.3937524307366405
  0.6380755063357997  0.2247953132870885  0.3937524419134134
  0.1118251385223241  0.7249154968617131  0.3937606939661444
  0.6118248055797098  0.7249139960226767  0.3937606644410650
  0.3619122845481495  0.7752002588362596  0.3937535301356747
  0.8619116364054472  0.7752005740075126  0.3937535401006043
  0.2559426954625689  0.0017482980773029  0.6430020872206600
 
  0.00000000E+00  0.00000000E+00  0.00000000E+00
  0.00000000E+00  0.00000000E+00  0.00000000E+00
  0.00000000E+00  0.00000000E+00  0.00000000E+00
  0.00000000E+00  0.00000000E+00  0.00000000E+00
  0.00000000E+00  0.00000000E+00  0.00000000E+00
  0.00000000E+00  0.00000000E+00  0.00000000E+00
  0.00000000E+00  0.00000000E+00  0.00000000E+00
  0.00000000E+00  0.00000000E+00  0.00000000E+00
  0.00000000E+00  0.00000000E+00  0.00000000E+00
  0.00000000E+00  0.00000000E+00  0.00000000E+00
  0.00000000E+00  0.00000000E+00  0.00000000E+00
  0.00000000E+00  0.00000000E+00  0.00000000E+00
  0.00000000E+00  0.00000000E+00  0.00000000E+00
  0.00000000E+00  0.00000000E+00  0.00000000E+00
  0.00000000E+00  0.00000000E+00  0.00000000E+00
  0.00000000E+00  0.00000000E+00  0.00000000E+00
  0.00000000E+00  0.00000000E+00  0.00000000E+00
  0.00000000E+00  0.00000000E+00  0.00000000E+00
  0.00000000E+00  0.00000000E+00  0.00000000E+00
  0.00000000E+00  0.00000000E+00  0.00000000E+00
  0.00000000E+00  0.00000000E+00  0.00000000E+00
  0.00000000E+00  0.00000000E+00  0.00000000E+00
  0.00000000E+00  0.00000000E+00  0.00000000E+00
  0.00000000E+00  0.00000000E+00  0.00000000E+00
  0.00000000E+00  0.00000000E+00  0.00000000E+00
  0.00000000E+00  0.00000000E+00  0.00000000E+00
  0.00000000E+00  0.00000000E+00  0.00000000E+00
  0.00000000E+00  0.00000000E+00  0.00000000E+00
  0.00000000E+00  0.00000000E+00  0.00000000E+00
  0.00000000E+00  0.00000000E+00  0.00000000E+00
  0.00000000E+00  0.00000000E+00  0.00000000E+00
  0.00000000E+00  0.00000000E+00  0.00000000E+00
  0.00000000E+00  0.00000000E+00  0.00000000E+00
  0.00000000E+00  0.00000000E+00  0.00000000E+00
  0.00000000E+00  0.00000000E+00  0.00000000E+00
  0.00000000E+00  0.00000000E+00  0.00000000E+00
  0.00000000E+00  0.00000000E+00  0.00000000E+00
  0.00000000E+00  0.00000000E+00  0.00000000E+00
  0.00000000E+00  0.00000000E+00  0.00000000E+00
  0.00000000E+00  0.00000000E+00  0.00000000E+00
  0.00000000E+00  0.00000000E+00  0.00000000E+00
  0.00000000E+00  0.00000000E+00  0.00000000E+00
  0.00000000E+00  0.00000000E+00  0.00000000E+00
  0.00000000E+00  0.00000000E+00  0.00000000E+00
  0.00000000E+00  0.00000000E+00  0.00000000E+00
  0.00000000E+00  0.00000000E+00  0.00000000E+00
  0.00000000E+00  0.00000000E+00  0.00000000E+00
  0.00000000E+00  0.00000000E+00  0.00000000E+00
  0.00000000E+00  0.00000000E+00  0.00000000E+00
  0.00000000E+00  0.00000000E+00  0.00000000E+00
  0.00000000E+00  0.00000000E+00  0.00000000E+00
  0.00000000E+00  0.00000000E+00  0.00000000E+00
  0.00000000E+00  0.00000000E+00  0.00000000E+00
  0.00000000E+00  0.00000000E+00  0.00000000E+00
  0.00000000E+00  0.00000000E+00  0.00000000E+00
  0.00000000E+00  0.00000000E+00  0.00000000E+00
  0.00000000E+00  0.00000000E+00  0.00000000E+00
  0.00000000E+00  0.00000000E+00  0.00000000E+00
  0.00000000E+00  0.00000000E+00  0.00000000E+00
  0.00000000E+00  0.00000000E+00  0.00000000E+00
  0.00000000E+00  0.00000000E+00  0.00000000E+00
  0.00000000E+00  0.00000000E+00  0.00000000E+00
  0.00000000E+00  0.00000000E+00  0.00000000E+00
  0.00000000E+00  0.00000000E+00  0.00000000E+00
  0.00000000E+00  0.00000000E+00  0.00000000E+00
  0.00000000E+00  0.00000000E+00  0.00000000E+00
  0.00000000E+00  0.00000000E+00  0.00000000E+00
  0.00000000E+00  0.00000000E+00  0.00000000E+00
  0.00000000E+00  0.00000000E+00  0.00000000E+00
  0.00000000E+00  0.00000000E+00  0.00000000E+00
  0.00000000E+00  0.00000000E+00  0.00000000E+00
  0.00000000E+00  0.00000000E+00  0.00000000E+00
  0.00000000E+00  0.00000000E+00  0.00000000E+00
  0.00000000E+00  0.00000000E+00  0.00000000E+00
  0.00000000E+00  0.00000000E+00  0.00000000E+00
  0.00000000E+00  0.00000000E+00  0.00000000E+00
  0.00000000E+00  0.00000000E+00  0.00000000E+00
  0.00000000E+00  0.00000000E+00  0.00000000E+00
  0.00000000E+00  0.00000000E+00  0.00000000E+00
  0.00000000E+00  0.00000000E+00  0.00000000E+00
  0.00000000E+00  0.00000000E+00  0.00000000E+00
  0.00000000E+00  0.00000000E+00  0.00000000E+00
  0.00000000E+00  0.00000000E+00  0.00000000E+00
  0.00000000E+00  0.00000000E+00  0.00000000E+00
  0.00000000E+00  0.00000000E+00  0.00000000E+00
  0.00000000E+00  0.00000000E+00  0.00000000E+00
  0.00000000E+00  0.00000000E+00  0.00000000E+00
  0.00000000E+00  0.00000000E+00  0.00000000E+00
  0.00000000E+00  0.00000000E+00  0.00000000E+00
  0.00000000E+00  0.00000000E+00  0.00000000E+00
  0.00000000E+00  0.00000000E+00  0.00000000E+00
  0.00000000E+00  0.00000000E+00  0.00000000E+00
  0.00000000E+00  0.00000000E+00  0.00000000E+00
  0.00000000E+00  0.00000000E+00  0.00000000E+00
  0.00000000E+00  0.00000000E+00  0.00000000E+00
  0.00000000E+00  0.00000000E+00  0.00000000E+00
  0.00000000E+00  0.00000000E+00  0.00000000E+00
  0.00000000E+00  0.00000000E+00  0.00000000E+00
  0.00000000E+00  0.00000000E+00  0.00000000E+00
  0.00000000E+00  0.00000000E+00  0.00000000E+00
  0.00000000E+00  0.00000000E+00  0.00000000E+00
  0.00000000E+00  0.00000000E+00  0.00000000E+00
  0.00000000E+00  0.00000000E+00  0.00000000E+00
  0.00000000E+00  0.00000000E+00  0.00000000E+00
  0.00000000E+00  0.00000000E+00  0.00000000E+00
  0.00000000E+00  0.00000000E+00  0.00000000E+00
  0.00000000E+00  0.00000000E+00  0.00000000E+00
  0.00000000E+00  0.00000000E+00  0.00000000E+00
  0.00000000E+00  0.00000000E+00  0.00000000E+00
  0.00000000E+00  0.00000000E+00  0.00000000E+00
  0.00000000E+00  0.00000000E+00  0.00000000E+00
  0.00000000E+00  0.00000000E+00  0.00000000E+00
  0.00000000E+00  0.00000000E+00  0.00000000E+00
  0.00000000E+00  0.00000000E+00  0.00000000E+00
