H8 Ir32 O72                             
   1.00000000000000     
     9.0898780000000006    0.0000000000000000    0.0000000000000000
     0.0000000000000000   11.1045669999999994   -0.0793000000000000
     0.0000000000000000    0.0000000000000000   31.3300599999999996
   H    Ir   O 
     8    32    72
Direct
  0.2417460940470753  0.3599474458327361  0.6972235474062138
  0.2417460420557800  0.8599479089134426  0.6972232362006302
  0.7417451909471569  0.3599480154392622  0.6972239606617021
  0.7417460921303347  0.8599475756989869  0.6972247456012509
  0.8098207459547275  0.0938108194002486  0.6862111480242474
  0.8098205868328955  0.5938158220411871  0.6862122202373180
  0.3098197145519035  0.0938152580963282  0.6862121815460489
  0.3098177374038059  0.5937955586520633  0.6862062009313732
  0.2632445678542045  0.3287048958579188  0.3749980415131233
  0.2632401142253321  0.8287057116018930  0.3749979414004035
  0.7632426203058106  0.3287050587112320  0.3749979086558657
  0.7632392625726043  0.8287077885341423  0.3749977157260984
  0.9881630658355285  0.0788171302421679  0.3745026957830089
  0.9881485368168178  0.5788346069521331  0.3744995922618294
  0.4881595463772880  0.0788244535606788  0.3745033422818389
  0.4881573157210383  0.5788294207721185  0.3745002117255043
  0.2477438219953521  0.0020488266418771  0.4569887930247580
  0.2477413313142204  0.5020498133614623  0.4569898161437371
  0.7477387280036908  0.0020477650343036  0.4569887473890943
  0.7477409392818063  0.5020417440783786  0.4569915057616706
  0.0016460997637366  0.2522795954443575  0.4574218137988542
  0.0016449931220366  0.7522784515805900  0.4574215006846091
  0.5016501996239381  0.2522902384559797  0.4574244462836958
  0.5016450743246784  0.7522799011212385  0.4574213846723968
  0.2493162932075495  0.1662335511034934  0.5409435402192682
  0.2493034106809655  0.6662324368941732  0.5409470709884484
  0.7493067580997032  0.1662354427757208  0.5409452853890286
  0.7493134554531156  0.6662313736962360  0.5409438980612563
 -0.0025930409233945  0.4163685933149228  0.5419388104742210
 -0.0025539635996193  0.9163648018766570  0.5419318996961385
  0.4974852322069606  0.4163587017399115  0.5419287196173549
  0.4974512916091426  0.9163632512407361  0.5419320369795464
  0.2403522738812990  0.3365800150202072  0.6245175094634090
  0.2403469074855529  0.8365789339343149  0.6245185405816730
  0.7403502021906374  0.3365809069295196  0.6245184678733536
  0.7403550881582329  0.8365803040457037  0.6245180662023109
  0.0001423487221172  0.0886887645910677  0.6268191821166891
  0.0001431016798721  0.5886924662239927  0.6268195251046587
  0.5001425677902331  0.0886904607580239  0.6268193013107650
  0.5001424839482886  0.5886942214119801  0.6268192858401375
  0.3462466387149168  0.1881401244838102  0.3509924396273381
  0.3462462654677439  0.6881402717787516  0.3509922857019563
  0.8462468164732834  0.1881399242410499  0.3509924845104634
  0.8462391600642064  0.6881410688968432  0.3509893398442755
  0.0956306979849820  0.2318641897549492  0.3993121941359024
  0.0956316352653296  0.7318638143417177  0.3993122456715080
  0.5956333034216379  0.2318635704615750  0.3993122631983930
  0.5956328942562272  0.7318632951631194  0.3993121654188209
  0.1530043807210337  0.4817134718851645  0.3992534627377722
  0.1530043982743730  0.9817124029100359  0.3992534866331334
  0.6530059271957925  0.4817122058694080  0.3992530545134906
  0.6530040998714450  0.9817125841479185  0.3992534448142050
  0.4041471381477625  0.4348816865549921  0.3493681019164749
  0.4041391849326381  0.9348893517603047  0.3493700950902222
  0.9041421437389021  0.4348860501801888  0.3493679250813504
  0.9041574672056574  0.9348773592506231  0.3493681247940489
  0.3425753442640062  0.3531605254725275  0.4339788526856679
  0.3425704423094177  0.8531601372409798  0.4339791312014851
  0.8425724736372208  0.3531598909110848  0.4339790580602784
  0.8425712625783318  0.8531600295350017  0.4339786337759041
  0.0955051554640796  0.3990250054818080  0.4840024999469464
  0.0955086643261226  0.8990230031119067  0.4840019499493374
  0.5955098551725940  0.3990269866813526  0.4839982920144525
  0.5955084077162113  0.8990231088863936  0.4840016472787558
  0.1528940225054244  0.1489461579254425  0.4839623320759691
  0.1528941788708669  0.6489460878853208  0.4839625255481729
  0.6528934470645307  0.1489466058155615  0.4839625396370664
  0.6528934124566181  0.6489457967202712  0.4839624741764151
  0.4042266021231734  0.1018982131810227  0.4333138756367541
  0.4042263848202826  0.6018975340719873  0.4333139620459145
  0.9042253405564045  0.1018969828874472  0.4333137046830586
  0.9042265497114542  0.6018979684180550  0.4333142312394923
  0.3456043431393562  0.0182999903537765  0.5155029733583637
  0.3456009535884236  0.5182901464656413  0.5155008715266133
  0.8455998271381487  0.0182968000013824  0.5155021244956896
  0.8455967184072293  0.5182972968281000  0.5155022954457619
  0.0952438292992961  0.0656881355748600  0.5673335357388158
  0.0952412232741197  0.5656881025744945  0.5673338590984586
  0.5952431545800221  0.0656879713135267  0.5673336032421045
  0.5952450796001506  0.5656878923254459  0.5673334032538258
  0.1561100261233568  0.3137778705243076  0.5659839521197735
  0.1561145926760866  0.8137762182307390  0.5659842087669561
  0.6561084024005727  0.3137810636928840  0.5659836139767065
  0.6561156583606295  0.8137755481695605  0.5659841406149565
  0.4042258045033366  0.2662618759744461  0.5154730567696879
  0.4042246800678272  0.7662611385865155  0.5154730202424331
  0.9042242316596542  0.2662614338603631  0.5154732423983479
  0.9042251530448914  0.7662614237579924  0.5154728907068125
  0.3422394696657343  0.1870606763108882  0.5995037728081779
  0.3422387554145094  0.6870608688247958  0.5995037185419769
  0.8422383815808921  0.1870611395818720  0.5995037749149882
  0.8422393433721629  0.6870608409261011  0.5995036799397035
  0.0971099369954731  0.2322402250861488  0.6487403305901785
  0.0970909105883498  0.7322436433170462  0.6487435796266914
  0.5971108652139328  0.2322395027795874  0.6487402666268500
  0.5971102229870345  0.7322408750129837  0.6487404703752904
  0.1470567322204210  0.4838352750220973  0.6470572180622335
  0.1470563443723152  0.9838351135080404  0.6470572047386581
  0.6470560719188759  0.4838352060528541  0.6470572525295676
  0.6470565203431474  0.9838363082019432  0.6470570031615920
  0.4022057334301006  0.4366981189775153  0.6001969484972350
  0.4021998384724094  0.9367050843826078  0.6001974934621520
  0.9022009271188713  0.4367029369149735  0.6001992140382397
  0.9021998296562131  0.9367052004976443  0.6001975246076782
  0.3323829166544806  0.3436461216639516  0.6811796930682104
  0.3323829537146141  0.8436453553563563  0.6811793591985730
  0.8323914244260674  0.3436534634502861  0.6811810524709224
  0.8323910922677102  0.8436539188196112  0.6811811340580194
  0.9180911236376679  0.1029832285699375  0.6845167103754531
  0.9180928500188025  0.6029822659449887  0.6845174271187462
  0.4180923997366205  0.1029805950308621  0.6845186160444716
  0.4180931513654629  0.6029826900449723  0.6845171021105962
 
  0.00000000E+00  0.00000000E+00  0.00000000E+00
  0.00000000E+00  0.00000000E+00  0.00000000E+00
  0.00000000E+00  0.00000000E+00  0.00000000E+00
  0.00000000E+00  0.00000000E+00  0.00000000E+00
  0.00000000E+00  0.00000000E+00  0.00000000E+00
  0.00000000E+00  0.00000000E+00  0.00000000E+00
  0.00000000E+00  0.00000000E+00  0.00000000E+00
  0.00000000E+00  0.00000000E+00  0.00000000E+00
  0.00000000E+00  0.00000000E+00  0.00000000E+00
  0.00000000E+00  0.00000000E+00  0.00000000E+00
  0.00000000E+00  0.00000000E+00  0.00000000E+00
  0.00000000E+00  0.00000000E+00  0.00000000E+00
  0.00000000E+00  0.00000000E+00  0.00000000E+00
  0.00000000E+00  0.00000000E+00  0.00000000E+00
  0.00000000E+00  0.00000000E+00  0.00000000E+00
  0.00000000E+00  0.00000000E+00  0.00000000E+00
  0.00000000E+00  0.00000000E+00  0.00000000E+00
  0.00000000E+00  0.00000000E+00  0.00000000E+00
  0.00000000E+00  0.00000000E+00  0.00000000E+00
  0.00000000E+00  0.00000000E+00  0.00000000E+00
  0.00000000E+00  0.00000000E+00  0.00000000E+00
  0.00000000E+00  0.00000000E+00  0.00000000E+00
  0.00000000E+00  0.00000000E+00  0.00000000E+00
  0.00000000E+00  0.00000000E+00  0.00000000E+00
  0.00000000E+00  0.00000000E+00  0.00000000E+00
  0.00000000E+00  0.00000000E+00  0.00000000E+00
  0.00000000E+00  0.00000000E+00  0.00000000E+00
  0.00000000E+00  0.00000000E+00  0.00000000E+00
  0.00000000E+00  0.00000000E+00  0.00000000E+00
  0.00000000E+00  0.00000000E+00  0.00000000E+00
  0.00000000E+00  0.00000000E+00  0.00000000E+00
  0.00000000E+00  0.00000000E+00  0.00000000E+00
  0.00000000E+00  0.00000000E+00  0.00000000E+00
  0.00000000E+00  0.00000000E+00  0.00000000E+00
  0.00000000E+00  0.00000000E+00  0.00000000E+00
  0.00000000E+00  0.00000000E+00  0.00000000E+00
  0.00000000E+00  0.00000000E+00  0.00000000E+00
  0.00000000E+00  0.00000000E+00  0.00000000E+00
  0.00000000E+00  0.00000000E+00  0.00000000E+00
  0.00000000E+00  0.00000000E+00  0.00000000E+00
  0.00000000E+00  0.00000000E+00  0.00000000E+00
  0.00000000E+00  0.00000000E+00  0.00000000E+00
  0.00000000E+00  0.00000000E+00  0.00000000E+00
  0.00000000E+00  0.00000000E+00  0.00000000E+00
  0.00000000E+00  0.00000000E+00  0.00000000E+00
  0.00000000E+00  0.00000000E+00  0.00000000E+00
  0.00000000E+00  0.00000000E+00  0.00000000E+00
  0.00000000E+00  0.00000000E+00  0.00000000E+00
  0.00000000E+00  0.00000000E+00  0.00000000E+00
  0.00000000E+00  0.00000000E+00  0.00000000E+00
  0.00000000E+00  0.00000000E+00  0.00000000E+00
  0.00000000E+00  0.00000000E+00  0.00000000E+00
  0.00000000E+00  0.00000000E+00  0.00000000E+00
  0.00000000E+00  0.00000000E+00  0.00000000E+00
  0.00000000E+00  0.00000000E+00  0.00000000E+00
  0.00000000E+00  0.00000000E+00  0.00000000E+00
  0.00000000E+00  0.00000000E+00  0.00000000E+00
  0.00000000E+00  0.00000000E+00  0.00000000E+00
  0.00000000E+00  0.00000000E+00  0.00000000E+00
  0.00000000E+00  0.00000000E+00  0.00000000E+00
  0.00000000E+00  0.00000000E+00  0.00000000E+00
  0.00000000E+00  0.00000000E+00  0.00000000E+00
  0.00000000E+00  0.00000000E+00  0.00000000E+00
  0.00000000E+00  0.00000000E+00  0.00000000E+00
  0.00000000E+00  0.00000000E+00  0.00000000E+00
  0.00000000E+00  0.00000000E+00  0.00000000E+00
  0.00000000E+00  0.00000000E+00  0.00000000E+00
  0.00000000E+00  0.00000000E+00  0.00000000E+00
  0.00000000E+00  0.00000000E+00  0.00000000E+00
  0.00000000E+00  0.00000000E+00  0.00000000E+00
  0.00000000E+00  0.00000000E+00  0.00000000E+00
  0.00000000E+00  0.00000000E+00  0.00000000E+00
  0.00000000E+00  0.00000000E+00  0.00000000E+00
  0.00000000E+00  0.00000000E+00  0.00000000E+00
  0.00000000E+00  0.00000000E+00  0.00000000E+00
  0.00000000E+00  0.00000000E+00  0.00000000E+00
  0.00000000E+00  0.00000000E+00  0.00000000E+00
  0.00000000E+00  0.00000000E+00  0.00000000E+00
  0.00000000E+00  0.00000000E+00  0.00000000E+00
  0.00000000E+00  0.00000000E+00  0.00000000E+00
  0.00000000E+00  0.00000000E+00  0.00000000E+00
  0.00000000E+00  0.00000000E+00  0.00000000E+00
  0.00000000E+00  0.00000000E+00  0.00000000E+00
  0.00000000E+00  0.00000000E+00  0.00000000E+00
  0.00000000E+00  0.00000000E+00  0.00000000E+00
  0.00000000E+00  0.00000000E+00  0.00000000E+00
  0.00000000E+00  0.00000000E+00  0.00000000E+00
  0.00000000E+00  0.00000000E+00  0.00000000E+00
  0.00000000E+00  0.00000000E+00  0.00000000E+00
  0.00000000E+00  0.00000000E+00  0.00000000E+00
  0.00000000E+00  0.00000000E+00  0.00000000E+00
  0.00000000E+00  0.00000000E+00  0.00000000E+00
  0.00000000E+00  0.00000000E+00  0.00000000E+00
  0.00000000E+00  0.00000000E+00  0.00000000E+00
  0.00000000E+00  0.00000000E+00  0.00000000E+00
  0.00000000E+00  0.00000000E+00  0.00000000E+00
  0.00000000E+00  0.00000000E+00  0.00000000E+00
  0.00000000E+00  0.00000000E+00  0.00000000E+00
  0.00000000E+00  0.00000000E+00  0.00000000E+00
  0.00000000E+00  0.00000000E+00  0.00000000E+00
  0.00000000E+00  0.00000000E+00  0.00000000E+00
  0.00000000E+00  0.00000000E+00  0.00000000E+00
  0.00000000E+00  0.00000000E+00  0.00000000E+00
  0.00000000E+00  0.00000000E+00  0.00000000E+00
  0.00000000E+00  0.00000000E+00  0.00000000E+00
  0.00000000E+00  0.00000000E+00  0.00000000E+00
  0.00000000E+00  0.00000000E+00  0.00000000E+00
  0.00000000E+00  0.00000000E+00  0.00000000E+00
  0.00000000E+00  0.00000000E+00  0.00000000E+00
  0.00000000E+00  0.00000000E+00  0.00000000E+00
  0.00000000E+00  0.00000000E+00  0.00000000E+00
  0.00000000E+00  0.00000000E+00  0.00000000E+00
