H1 Ir32 O69                             
   1.00000000000000     
     6.3790139999999997    0.0000000000000000    0.0000000000000000
     0.0000000000000000   12.8550290000000000    0.0000000000000000
     0.0000000000000000    0.0000000000000000   38.5650860000000009
   H    Ir   O 
     1    32    69
Direct
  0.0421440990033012  0.5710289976656453  0.7160227931094566
  0.2500186035283150  0.1249235533176126  0.3735504274564390
  0.2499762890427036  0.6249267757888857  0.3735501521825305
  0.7500170714465100  0.1249238206087530  0.3735503835947898
  0.7500569056090781  0.6249242754642991  0.3735503761193141
  0.0000207139606218  0.3747872983269663  0.3763971999694361
  0.0000170166250731  0.8747948908718851  0.3764004055787885
  0.5000195052088571  0.3747816139759212  0.3763988016461651
  0.5000190859383378  0.8748022872726903  0.3763980128025494
  0.2500324398930884  0.3746053424247816  0.4580132423158838
  0.2500428361984416  0.8747428663842556  0.4580096970425485
  0.7499904646025201  0.3746188207215966  0.4580145473297120
  0.7500155229257306  0.8747540449705128  0.4580085119434913
  0.0000187646727931  0.1248535907139261  0.4579451665800792
  0.0000078858553447  0.6248554874079223  0.4579453978520163
  0.5000249218007828  0.1248513175458010  0.4579464254501721
  0.4999774425238482  0.6248601627219501  0.4579464285738549
  0.2499923484793745  0.1247891013775516  0.5412834418813144
  0.2503986172696939  0.6244557817122014  0.5413072902524769
  0.7500443536347597  0.1247914023610229  0.5412829599400525
  0.7494963978504455  0.6253344634145547  0.5412877465395100
 -0.0000317689832603  0.3749443711996832  0.5419626070301712
  0.0001155728305163  0.8747517462747528  0.5419600311005399
  0.5001075834862091  0.3746970119402128  0.5419483311563227
  0.4999768652800554  0.8749287815668083  0.5419618405714161
  0.2501321501726976  0.3751770280107377  0.6263069730019638
  0.2500692501393842  0.8747773493982980  0.6263050024214983
  0.7499760436122620  0.3750818316781188  0.6262970038731359
  0.7499631276152574  0.8745552357444519  0.6263037799228806
 -0.0000146593101642  0.1248001847433152  0.6263195454112668
  0.0004107121077462  0.6236037366210094  0.6248520222499250
  0.5000130644849058  0.1248042972698302  0.6263200127711612
  0.5000705346478618  0.6254271186788281  0.6262795406719296
  0.0000057721837037  0.1249931217461881  0.3423489971366088
  0.0000054310162071  0.6249930887166475  0.3423484201455074
  0.5000057939127444  0.1249932038143954  0.3423489406843814
  0.5000058842254762  0.6249932349986538  0.3423490403995779
  0.2500067542265292  0.2771312423079314  0.3749580004433893
  0.2500064247038813  0.7771311650978810  0.3749580920918142
  0.7500066363187136  0.2771313310272817  0.3749580106141450
  0.7500059980112397  0.7771310899982489  0.3749580995018619
  0.0000105025110932  0.1249938774932450  0.4075721738320849
  0.0000082926877443  0.6249929973322813  0.4075788157130671
  0.5000105170163138  0.1249938723854695  0.4075719313605562
  0.5000090141967934  0.6249931508850627  0.4075806253296912
  0.2500074245814726  0.4728425199608381  0.3749590246870411
  0.2500073180352659  0.9728422703497571  0.3749589607812519
  0.7500066564043745  0.4728425264218045  0.3749589958760213
  0.7500069982801446  0.9728423004092835  0.3749589435191866
  0.0000067294047307  0.3749944410650587  0.4257286994291012
  0.0000080236364595  0.8749940493823450  0.4257285936379500
  0.5000061294474477  0.3749948897562893  0.4257280708099989
  0.5000094623184347  0.8749937305155705  0.4257279911419017
  0.2500058088234185  0.0271303395693906  0.4583160600861217
  0.2499980229434582  0.5271267985820647  0.4583161713691153
  0.7500081376385938  0.0271307760646626  0.4583160953977682
  0.7500124626371941  0.5271271646189274  0.4583160437700026
  0.0000054140602126  0.3749910296422835  0.4909485304172316
  0.0000110295903458  0.8749913647076331  0.4909482947036666
  0.5000109011298375  0.3749924298592813  0.4909485068918702
  0.5000059865727946  0.8749904137275750  0.4909482058276998
  0.2500067601254558  0.2228307857102548  0.4583163457824913
  0.2499948897596445  0.7228352652690436  0.4583162428540579
  0.7500083812629067  0.2228313450650236  0.4583162938735917
  0.7500117792893438  0.7228356733962356  0.4583164422447097
  0.0000049214557752  0.1249909672905867  0.5090182271545609
  0.0000045584021780  0.6249919416970886  0.5090195332485011
  0.5000046403677382  0.1249910009414725  0.5090184401148132
  0.4999915373247592  0.6249908826957389  0.5090176358486812
  0.2500032952069434  0.2771203532824715  0.5416537864056671
  0.2500160190877393  0.7771122290407404  0.5416539632778002
  0.7500135331414570  0.2771197371836022  0.5416539702726613
  0.7499738342726098  0.7771365836678651  0.5416535574248913
  0.0000046860408619  0.1249907745891035  0.5742664048361674
 -0.0003385537534453  0.6249981015739816  0.5742094369975494
  0.5000083930149251  0.1249906729823795  0.5742664153489340
  0.5000090866194467  0.6249948705985563  0.5742672587508576
  0.2500350197643207  0.4728362824171805  0.5416541137878100
  0.2500034939999390  0.9728469970436354  0.5416540783543227
  0.7499919887112358  0.4728608569843672  0.5416543592871633
  0.7500170436497418  0.9728474253789327  0.5416539241723102
 -0.0000073179276771  0.3749942367949627  0.5923914447744738
  0.0000015316495559  0.8749914231760965  0.5923912578642734
  0.5000071869492364  0.3749847713222621  0.5923890188149781
  0.4999961357784611  0.8749939783618994  0.5923904062589684
  0.2499984178914998  0.0278594241694362  0.6238522468244115
  0.2500240904245726  0.5278512256321490  0.6238570136532544
  0.7500029604494713  0.0278547002109290  0.6238519067993153
  0.7500325874986288  0.5278607163622482  0.6238558820460831
 -0.0000627838230274  0.3749374060626054  0.6576054685777978
 -0.0000217612408909  0.8749867196887237  0.6576135450633943
  0.4999981120557497  0.3749993734348114  0.6576138962765808
  0.5000207401253722  0.8749887849779761  0.6576132572025510
  0.2499988805251638  0.2221247513112673  0.6238523113620384
  0.2499906242400963  0.7221060330752753  0.6238519509277877
  0.7500020784952265  0.2221180165697730  0.6238522541768317
  0.7499889537822892  0.7221274393633589  0.6238557460736218
  0.0000108759138531  0.1249925515205097  0.6722438333897826
  0.5000132382832697  0.1249923863174960  0.6722444420680893
  0.5003361481988768  0.6249982676955421  0.6722445436450584
 -0.0066620370362829  0.6319283530882694  0.6736564499149810
  0.0690587413552584  0.5417606854452940  0.6932612603067919
 
  0.00000000E+00  0.00000000E+00  0.00000000E+00
  0.00000000E+00  0.00000000E+00  0.00000000E+00
  0.00000000E+00  0.00000000E+00  0.00000000E+00
  0.00000000E+00  0.00000000E+00  0.00000000E+00
  0.00000000E+00  0.00000000E+00  0.00000000E+00
  0.00000000E+00  0.00000000E+00  0.00000000E+00
  0.00000000E+00  0.00000000E+00  0.00000000E+00
  0.00000000E+00  0.00000000E+00  0.00000000E+00
  0.00000000E+00  0.00000000E+00  0.00000000E+00
  0.00000000E+00  0.00000000E+00  0.00000000E+00
  0.00000000E+00  0.00000000E+00  0.00000000E+00
  0.00000000E+00  0.00000000E+00  0.00000000E+00
  0.00000000E+00  0.00000000E+00  0.00000000E+00
  0.00000000E+00  0.00000000E+00  0.00000000E+00
  0.00000000E+00  0.00000000E+00  0.00000000E+00
  0.00000000E+00  0.00000000E+00  0.00000000E+00
  0.00000000E+00  0.00000000E+00  0.00000000E+00
  0.00000000E+00  0.00000000E+00  0.00000000E+00
  0.00000000E+00  0.00000000E+00  0.00000000E+00
  0.00000000E+00  0.00000000E+00  0.00000000E+00
  0.00000000E+00  0.00000000E+00  0.00000000E+00
  0.00000000E+00  0.00000000E+00  0.00000000E+00
  0.00000000E+00  0.00000000E+00  0.00000000E+00
  0.00000000E+00  0.00000000E+00  0.00000000E+00
  0.00000000E+00  0.00000000E+00  0.00000000E+00
  0.00000000E+00  0.00000000E+00  0.00000000E+00
  0.00000000E+00  0.00000000E+00  0.00000000E+00
  0.00000000E+00  0.00000000E+00  0.00000000E+00
  0.00000000E+00  0.00000000E+00  0.00000000E+00
  0.00000000E+00  0.00000000E+00  0.00000000E+00
  0.00000000E+00  0.00000000E+00  0.00000000E+00
  0.00000000E+00  0.00000000E+00  0.00000000E+00
  0.00000000E+00  0.00000000E+00  0.00000000E+00
  0.00000000E+00  0.00000000E+00  0.00000000E+00
  0.00000000E+00  0.00000000E+00  0.00000000E+00
  0.00000000E+00  0.00000000E+00  0.00000000E+00
  0.00000000E+00  0.00000000E+00  0.00000000E+00
  0.00000000E+00  0.00000000E+00  0.00000000E+00
  0.00000000E+00  0.00000000E+00  0.00000000E+00
  0.00000000E+00  0.00000000E+00  0.00000000E+00
  0.00000000E+00  0.00000000E+00  0.00000000E+00
  0.00000000E+00  0.00000000E+00  0.00000000E+00
  0.00000000E+00  0.00000000E+00  0.00000000E+00
  0.00000000E+00  0.00000000E+00  0.00000000E+00
  0.00000000E+00  0.00000000E+00  0.00000000E+00
  0.00000000E+00  0.00000000E+00  0.00000000E+00
  0.00000000E+00  0.00000000E+00  0.00000000E+00
  0.00000000E+00  0.00000000E+00  0.00000000E+00
  0.00000000E+00  0.00000000E+00  0.00000000E+00
  0.00000000E+00  0.00000000E+00  0.00000000E+00
  0.00000000E+00  0.00000000E+00  0.00000000E+00
  0.00000000E+00  0.00000000E+00  0.00000000E+00
  0.00000000E+00  0.00000000E+00  0.00000000E+00
  0.00000000E+00  0.00000000E+00  0.00000000E+00
  0.00000000E+00  0.00000000E+00  0.00000000E+00
  0.00000000E+00  0.00000000E+00  0.00000000E+00
  0.00000000E+00  0.00000000E+00  0.00000000E+00
  0.00000000E+00  0.00000000E+00  0.00000000E+00
  0.00000000E+00  0.00000000E+00  0.00000000E+00
  0.00000000E+00  0.00000000E+00  0.00000000E+00
  0.00000000E+00  0.00000000E+00  0.00000000E+00
  0.00000000E+00  0.00000000E+00  0.00000000E+00
  0.00000000E+00  0.00000000E+00  0.00000000E+00
  0.00000000E+00  0.00000000E+00  0.00000000E+00
  0.00000000E+00  0.00000000E+00  0.00000000E+00
  0.00000000E+00  0.00000000E+00  0.00000000E+00
  0.00000000E+00  0.00000000E+00  0.00000000E+00
  0.00000000E+00  0.00000000E+00  0.00000000E+00
  0.00000000E+00  0.00000000E+00  0.00000000E+00
  0.00000000E+00  0.00000000E+00  0.00000000E+00
  0.00000000E+00  0.00000000E+00  0.00000000E+00
  0.00000000E+00  0.00000000E+00  0.00000000E+00
  0.00000000E+00  0.00000000E+00  0.00000000E+00
  0.00000000E+00  0.00000000E+00  0.00000000E+00
  0.00000000E+00  0.00000000E+00  0.00000000E+00
  0.00000000E+00  0.00000000E+00  0.00000000E+00
  0.00000000E+00  0.00000000E+00  0.00000000E+00
  0.00000000E+00  0.00000000E+00  0.00000000E+00
  0.00000000E+00  0.00000000E+00  0.00000000E+00
  0.00000000E+00  0.00000000E+00  0.00000000E+00
  0.00000000E+00  0.00000000E+00  0.00000000E+00
  0.00000000E+00  0.00000000E+00  0.00000000E+00
  0.00000000E+00  0.00000000E+00  0.00000000E+00
  0.00000000E+00  0.00000000E+00  0.00000000E+00
  0.00000000E+00  0.00000000E+00  0.00000000E+00
  0.00000000E+00  0.00000000E+00  0.00000000E+00
  0.00000000E+00  0.00000000E+00  0.00000000E+00
  0.00000000E+00  0.00000000E+00  0.00000000E+00
  0.00000000E+00  0.00000000E+00  0.00000000E+00
  0.00000000E+00  0.00000000E+00  0.00000000E+00
  0.00000000E+00  0.00000000E+00  0.00000000E+00
  0.00000000E+00  0.00000000E+00  0.00000000E+00
  0.00000000E+00  0.00000000E+00  0.00000000E+00
  0.00000000E+00  0.00000000E+00  0.00000000E+00
  0.00000000E+00  0.00000000E+00  0.00000000E+00
  0.00000000E+00  0.00000000E+00  0.00000000E+00
  0.00000000E+00  0.00000000E+00  0.00000000E+00
  0.00000000E+00  0.00000000E+00  0.00000000E+00
  0.00000000E+00  0.00000000E+00  0.00000000E+00
  0.00000000E+00  0.00000000E+00  0.00000000E+00
  0.00000000E+00  0.00000000E+00  0.00000000E+00
  0.00000000E+00  0.00000000E+00  0.00000000E+00
